320
Lattice="15.72811186 1e-08 -1e-08 1e-08 15.72812968 -0.0 -1e-08 -0.0 15.9288354" Properties=species:S:1:pos:R:3:oxn:I:1:REF_node_energy:R:1:REF_forces:R:3:REF_atomic_dipoles:R:3:REF_atomic-oxn-dipole:R:3:REF_BEC:R:9 REF_energy=-236920.59322158914 REF_stress="_JSON [[-0.035781789472631234, 1.0612065894687635e-09, -5.011497040151383e-09], [1.0612065894687635e-09, -0.03578101487315735, -7.220160240654256e-09], [-5.011497040151383e-09, -7.220160240654256e-09, -0.0350937128046632]]" REF_displacement="_JSON [[0.0, 0.0, 0.0], [0.0, 0.0, 0.0], [0.0, 0.0, 0.0]]" REF_dipole="-503.2994301583659 -503.2999454445355 -67.37876199740803" REF_piezoelectric="_JSON [[[0.12772875063245004, -3.273221741170401e-08, -0.006641942775475788], [-3.2732217408998936e-08, 0.12772875707949888, -3.727582903326829e-12], [-0.006641942775475788, -3.727582903326829e-12, 0.12772874140607549]], [[0.12772887467646968, -2.0382532884552613e-08, -3.728861826070179e-12], [-2.0382532886838127e-08, 0.12772888081169406, -0.006640575357548304], [-3.728861826070179e-12, -0.006640575357548304, 0.12772885013621849]], [[0.0023936036708657057, -2.1660557746185482e-11, -3.36346774153685e-08], [-2.1660557746185482e-11, 0.0023950377453705674, -5.2989729578830304e-08], [-3.363467741188556e-08, -5.298972957655755e-08, 0.05612033410469625]]]" energy=-16277630.8886 free_energy=-16277630.8886 pbc="T T T"
Ba       0.00000069       0.00000103       0.00466760        2       0.61788016      -0.00000657      -0.00000991      -0.00775344       0.00000051       0.00000077      -0.02163578       0.00000138       0.00000206       0.00933520       2.84354555      -0.00000000       0.00000022      -0.00000000       2.84354424       0.00000033       0.00000013       0.00000019       2.84494312
Ba       3.93202865       0.00000103       0.00466759        2       0.61788016      -0.00000650      -0.00000991      -0.00775343       0.00000051       0.00000077      -0.02163578       7.86405730       0.00000206       0.00933518       2.84354555       0.00000000       0.00000023      -0.00000000       2.84354424       0.00000033       0.00000013       0.00000019       2.84494311
Ba       7.86405662       0.00000103       0.00466759        2       0.61788016      -0.00000659      -0.00000987      -0.00775339       0.00000051       0.00000077      -0.02163578      15.72811324       0.00000206       0.00933518       2.84354555      -0.00000000       0.00000022      -0.00000000       2.84354424       0.00000033       0.00000013       0.00000018       2.84494312
Ba      11.79608458       0.00000104       0.00466759        2       0.61788016      -0.00000651      -0.00000991      -0.00775345       0.00000051       0.00000077      -0.02163578      23.59216916       0.00000208       0.00933518       2.84354556      -0.00000000       0.00000023      -0.00000000       2.84354424       0.00000033       0.00000013       0.00000019       2.84494312
Ba       0.00000069       3.93203345       0.00466759        2       0.61788016      -0.00000657      -0.00000993      -0.00775336       0.00000051       0.00000077      -0.02163579       0.00000138       7.86406690       0.00933518       2.84354555      -0.00000000       0.00000023      -0.00000000       2.84354424       0.00000033       0.00000013       0.00000019       2.84494311
Ba       3.93202865       3.93203345       0.00466759        2       0.61788016      -0.00000648      -0.00000991      -0.00775341       0.00000051       0.00000077      -0.02163578       7.86405730       7.86406690       0.00933518       2.84354555      -0.00000000       0.00000022      -0.00000000       2.84354424       0.00000033       0.00000013       0.00000019       2.84494311
Ba       7.86405662       3.93203345       0.00466759        2       0.61788016      -0.00000656      -0.00000987      -0.00775339       0.00000051       0.00000077      -0.02163578      15.72811324       7.86406690       0.00933518       2.84354555      -0.00000000       0.00000023      -0.00000000       2.84354424       0.00000033       0.00000013       0.00000019       2.84494311
Ba      11.79608458       3.93203346       0.00466759        2       0.61788016      -0.00000651      -0.00000995      -0.00775341       0.00000051       0.00000077      -0.02163578      23.59216916       7.86406692       0.00933518       2.84354555      -0.00000000       0.00000022      -0.00000000       2.84354424       0.00000033       0.00000013       0.00000019       2.84494312
Ba       0.00000069       7.86406587       0.00466759        2       0.61788016      -0.00000650      -0.00000990      -0.00775339       0.00000051       0.00000077      -0.02163578       0.00000138      15.72813174       0.00933518       2.84354555      -0.00000000       0.00000023      -0.00000000       2.84354424       0.00000033       0.00000013       0.00000019       2.84494311
Ba       3.93202866       7.86406587       0.00466759        2       0.61788016      -0.00000656      -0.00000987      -0.00775339       0.00000051       0.00000077      -0.02163578       7.86405732      15.72813174       0.00933518       2.84354555      -0.00000000       0.00000022      -0.00000000       2.84354424       0.00000033       0.00000013       0.00000019       2.84494311
Ba       7.86405662       7.86406587       0.00466759        2       0.61788016      -0.00000652      -0.00000989      -0.00775341       0.00000051       0.00000077      -0.02163578      15.72811324      15.72813174       0.00933518       2.84354555      -0.00000000       0.00000022      -0.00000001       2.84354424       0.00000033       0.00000013       0.00000019       2.84494311
Ba      11.79608459       7.86406588       0.00466759        2       0.61788016      -0.00000660      -0.00000993      -0.00775338       0.00000051       0.00000077      -0.02163578      23.59216918      15.72813176       0.00933518       2.84354555      -0.00000000       0.00000023      -0.00000000       2.84354424       0.00000033       0.00000013       0.00000019       2.84494312
Ba       0.00000070      11.79609829       0.00466759        2       0.61788016      -0.00000656      -0.00000991      -0.00775338       0.00000051       0.00000077      -0.02163578       0.00000140      23.59219658       0.00933518       2.84354555      -0.00000000       0.00000022      -0.00000000       2.84354424       0.00000033       0.00000013       0.00000019       2.84494311
Ba       3.93202866      11.79609829       0.00466759        2       0.61788016      -0.00000653      -0.00000990      -0.00775341       0.00000051       0.00000077      -0.02163578       7.86405732      23.59219658       0.00933518       2.84354555      -0.00000000       0.00000023      -0.00000000       2.84354424       0.00000033       0.00000013       0.00000019       2.84494311
Ba       7.86405663      11.79609829       0.00466759        2       0.61788016      -0.00000660      -0.00000989      -0.00775341       0.00000051       0.00000077      -0.02163578      15.72811326      23.59219658       0.00933518       2.84354555      -0.00000000       0.00000022      -0.00000000       2.84354424       0.00000033       0.00000013       0.00000019       2.84494312
Ba      11.79608459      11.79609830       0.00466759        2       0.61788016      -0.00000653      -0.00000995      -0.00775342       0.00000051       0.00000077      -0.02163578      23.59216918      23.59219660       0.00933518       2.84354556      -0.00000000       0.00000023       0.00000000       2.84354424       0.00000033       0.00000013       0.00000018       2.84494312
Ba       0.00000068       0.00000103       3.98687644        2       0.61788016      -0.00000651      -0.00000990      -0.00775338       0.00000051       0.00000077      -0.02163578       0.00000136       0.00000206       7.97375288       2.84354556      -0.00000000       0.00000022      -0.00000000       2.84354424       0.00000033       0.00000013       0.00000019       2.84494311
Ba       3.93202865       0.00000103       3.98687644        2       0.61788016      -0.00000656      -0.00000988      -0.00775336       0.00000051       0.00000077      -0.02163578       7.86405730       0.00000206       7.97375288       2.84354555       0.00000000       0.00000022      -0.00000000       2.84354424       0.00000033       0.00000013       0.00000019       2.84494311
Ba       7.86405661       0.00000103       3.98687644        2       0.61788016      -0.00000651      -0.00000985      -0.00775341       0.00000051       0.00000077      -0.02163578      15.72811322       0.00000206       7.97375288       2.84354556      -0.00000000       0.00000022      -0.00000000       2.84354425       0.00000033       0.00000013       0.00000019       2.84494312
Ba      11.79608458       0.00000104       3.98687644        2       0.61788016      -0.00000656      -0.00000993      -0.00775341       0.00000051       0.00000077      -0.02163578      23.59216916       0.00000208       7.97375288       2.84354555      -0.00000000       0.00000022       0.00000000       2.84354424       0.00000033       0.00000013       0.00000019       2.84494311
Ba       0.00000069       3.93203345       3.98687644        2       0.61788016      -0.00000658      -0.00000988      -0.00775336       0.00000051       0.00000077      -0.02163579       0.00000138       7.86406690       7.97375288       2.84354556       0.00000000       0.00000023      -0.00000000       2.84354424       0.00000033       0.00000013       0.00000019       2.84494311
Ba       3.93202865       3.93203345       3.98687644        2       0.61788016      -0.00000653      -0.00000990      -0.00775336       0.00000051       0.00000077      -0.02163578       7.86405730       7.86406690       7.97375288       2.84354555      -0.00000000       0.00000022      -0.00000000       2.84354424       0.00000033       0.00000013       0.00000019       2.84494311
Ba       7.86405662       3.93203345       3.98687644        2       0.61788015      -0.00000658      -0.00000988      -0.00775337       0.00000051       0.00000077      -0.02163578      15.72811324       7.86406690       7.97375288       2.84354556       0.00000000       0.00000022      -0.00000001       2.84354424       0.00000033       0.00000013       0.00000019       2.84494312
Ba      11.79608458       3.93203346       3.98687644        2       0.61788016      -0.00000654      -0.00000989      -0.00775342       0.00000051       0.00000077      -0.02163578      23.59216916       7.86406692       7.97375288       2.84354556      -0.00000000       0.00000022      -0.00000000       2.84354424       0.00000033       0.00000013       0.00000019       2.84494312
Ba       0.00000069       7.86406587       3.98687644        2       0.61788016      -0.00000653      -0.00000990      -0.00775336       0.00000051       0.00000077      -0.02163578       0.00000138      15.72813174       7.97375288       2.84354555      -0.00000000       0.00000023      -0.00000000       2.84354424       0.00000033       0.00000013       0.00000019       2.84494311
Ba       3.93202866       7.86406587       3.98687644        2       0.61788016      -0.00000660      -0.00000986      -0.00775337       0.00000052       0.00000077      -0.02163578       7.86405732      15.72813174       7.97375288       2.84354556      -0.00000000       0.00000022      -0.00000000       2.84354424       0.00000033       0.00000013       0.00000019       2.84494312
Ba       7.86405662       7.86406587       3.98687644        2       0.61788016      -0.00000654      -0.00000992      -0.00775339       0.00000051       0.00000077      -0.02163578      15.72811324      15.72813174       7.97375288       2.84354556      -0.00000001       0.00000022      -0.00000000       2.84354424       0.00000033       0.00000013       0.00000019       2.84494312
Ba      11.79608459       7.86406588       3.98687644        2       0.61788016      -0.00000659      -0.00000991      -0.00775343       0.00000052       0.00000077      -0.02163578      23.59216918      15.72813176       7.97375288       2.84354556      -0.00000000       0.00000022      -0.00000000       2.84354424       0.00000033       0.00000013       0.00000019       2.84494312
Ba       0.00000069      11.79609829       3.98687644        2       0.61788016      -0.00000652      -0.00000988      -0.00775339       0.00000051       0.00000077      -0.02163578       0.00000138      23.59219658       7.97375288       2.84354555      -0.00000000       0.00000022       0.00000000       2.84354424       0.00000033       0.00000013       0.00000019       2.84494311
Ba       3.93202866      11.79609829       3.98687644        2       0.61788016      -0.00000658      -0.00000992      -0.00775337       0.00000051       0.00000077      -0.02163578       7.86405732      23.59219658       7.97375288       2.84354556       0.00000000       0.00000022      -0.00000000       2.84354424       0.00000033       0.00000013       0.00000019       2.84494312
Ba       7.86405662      11.79609829       3.98687644        2       0.61788016      -0.00000652      -0.00000987      -0.00775342       0.00000051       0.00000077      -0.02163578      15.72811324      23.59219658       7.97375288       2.84354556      -0.00000001       0.00000022      -0.00000000       2.84354424       0.00000033       0.00000013       0.00000019       2.84494312
Ba      11.79608459      11.79609830       3.98687644        2       0.61788016      -0.00000656      -0.00000992      -0.00775342       0.00000051       0.00000077      -0.02163578      23.59216918      23.59219660       7.97375288       2.84354556      -0.00000000       0.00000022      -0.00000000       2.84354424       0.00000033       0.00000013       0.00000019       2.84494312
Ba       0.00000068       0.00000102       7.96908529        2       0.61788016      -0.00000653      -0.00000980      -0.00775340       0.00000051       0.00000076      -0.02163578       0.00000136       0.00000204      15.93817058       2.84354556      -0.00000000       0.00000022       0.00000000       2.84354424       0.00000033       0.00000013       0.00000019       2.84494312
Ba       3.93202865       0.00000103       7.96908529        2       0.61788016      -0.00000655      -0.00000989      -0.00775341       0.00000051       0.00000077      -0.02163578       7.86405730       0.00000206      15.93817058       2.84354556       0.00000000       0.00000022      -0.00000000       2.84354424       0.00000033       0.00000013       0.00000018       2.84494311
Ba       7.86405661       0.00000103       7.96908529        2       0.61788016      -0.00000654      -0.00000988      -0.00775343       0.00000051       0.00000077      -0.02163578      15.72811322       0.00000206      15.93817058       2.84354556      -0.00000000       0.00000022      -0.00000000       2.84354425       0.00000033       0.00000013       0.00000019       2.84494312
Ba      11.79608458       0.00000103       7.96908529        2       0.61788016      -0.00000656      -0.00000987      -0.00775344       0.00000051       0.00000077      -0.02163578      23.59216916       0.00000206      15.93817058       2.84354556      -0.00000000       0.00000022      -0.00000000       2.84354424       0.00000033       0.00000013       0.00000019       2.84494312
Ba       0.00000069       3.93203344       7.96908529        2       0.61788016      -0.00000660      -0.00000980      -0.00775334       0.00000052       0.00000076      -0.02163579       0.00000138       7.86406688      15.93817058       2.84354556      -0.00000000       0.00000022      -0.00000000       2.84354424       0.00000033       0.00000013       0.00000019       2.84494311
Ba       3.93202865       3.93203345       7.96908529        2       0.61788016      -0.00000655      -0.00000992      -0.00775336       0.00000051       0.00000077      -0.02163578       7.86405730       7.86406690      15.93817058       2.84354555      -0.00000000       0.00000022       0.00000000       2.84354424       0.00000033       0.00000013       0.00000019       2.84494311
Ba       7.86405662       3.93203345       7.96908529        2       0.61788016      -0.00000663      -0.00000987      -0.00775341       0.00000052       0.00000077      -0.02163578      15.72811324       7.86406690      15.93817058       2.84354556      -0.00000000       0.00000022      -0.00000000       2.84354424       0.00000033       0.00000013       0.00000019       2.84494312
Ba      11.79608458       3.93203345       7.96908529        2       0.61788016      -0.00000649      -0.00000987      -0.00775340       0.00000051       0.00000077      -0.02163578      23.59216916       7.86406690      15.93817058       2.84354555      -0.00000000       0.00000022      -0.00000001       2.84354424       0.00000033       0.00000013       0.00000019       2.84494311
Ba       0.00000069       7.86406587       7.96908529        2       0.61788016      -0.00000656      -0.00000993      -0.00775337       0.00000051       0.00000077      -0.02163578       0.00000138      15.72813174      15.93817058       2.84354555       0.00000000       0.00000022      -0.00000000       2.84354424       0.00000033       0.00000013       0.00000019       2.84494311
Ba       3.93202865       7.86406587       7.96908529        2       0.61788016      -0.00000653      -0.00000988      -0.00775339       0.00000051       0.00000077      -0.02163578       7.86405730      15.72813174      15.93817058       2.84354556      -0.00000000       0.00000022       0.00000000       2.84354424       0.00000033       0.00000013       0.00000019       2.84494312
Ba       7.86405662       7.86406587       7.96908529        2       0.61788016      -0.00000656      -0.00000992      -0.00775341       0.00000051       0.00000077      -0.02163578      15.72811324      15.72813174      15.93817058       2.84354556       0.00000000       0.00000022      -0.00000000       2.84354424       0.00000033       0.00000013       0.00000019       2.84494312
Ba      11.79608458       7.86406587       7.96908529        2       0.61788016      -0.00000651      -0.00000980      -0.00775344       0.00000051       0.00000076      -0.02163578      23.59216916      15.72813174      15.93817058       2.84354556      -0.00000001       0.00000022      -0.00000000       2.84354424       0.00000033       0.00000013       0.00000019       2.84494312
Ba       0.00000069      11.79609829       7.96908529        2       0.61788016      -0.00000652      -0.00000991      -0.00775338       0.00000051       0.00000077      -0.02163578       0.00000138      23.59219658      15.93817058       2.84354555      -0.00000000       0.00000022      -0.00000000       2.84354424       0.00000033       0.00000013       0.00000019       2.84494311
Ba       3.93202866      11.79609829       7.96908529        2       0.61788016      -0.00000660      -0.00000989      -0.00775340       0.00000052       0.00000077      -0.02163578       7.86405732      23.59219658      15.93817058       2.84354556       0.00000000       0.00000022      -0.00000000       2.84354424       0.00000033       0.00000013       0.00000019       2.84494312
Ba       7.86405662      11.79609829       7.96908529        2       0.61788016      -0.00000651      -0.00000987      -0.00775344       0.00000051       0.00000077      -0.02163578      15.72811324      23.59219658      15.93817058       2.84354555      -0.00000001       0.00000022      -0.00000000       2.84354424       0.00000033       0.00000012       0.00000019       2.84494311
Ba      11.79608459      11.79609830       7.96908529        2       0.61788016      -0.00000660      -0.00000994      -0.00775345       0.00000051       0.00000077      -0.02163578      23.59216918      23.59219660      15.93817058       2.84354556       0.00000000       0.00000022      -0.00000001       2.84354424       0.00000033       0.00000013       0.00000019       2.84494312
Ba       0.00000068       0.00000102      11.95129414        2       0.61788016      -0.00000653      -0.00000983      -0.00775336       0.00000051       0.00000076      -0.02163578       0.00000136       0.00000204      23.90258828       2.84354555      -0.00000000       0.00000023       0.00000000       2.84354424       0.00000033       0.00000013       0.00000019       2.84494311
Ba       3.93202865       0.00000103      11.95129414        2       0.61788016      -0.00000657      -0.00000990      -0.00775340       0.00000051       0.00000077      -0.02163578       7.86405730       0.00000206      23.90258828       2.84354556      -0.00000000       0.00000022      -0.00000000       2.84354424       0.00000033       0.00000013       0.00000019       2.84494312
Ba       7.86405661       0.00000103      11.95129414        2       0.61788016      -0.00000651      -0.00000990      -0.00775345       0.00000051       0.00000077      -0.02163578      15.72811322       0.00000206      23.90258828       2.84354556      -0.00000000       0.00000022      -0.00000000       2.84354424       0.00000033       0.00000013       0.00000019       2.84494312
Ba      11.79608458       0.00000103      11.95129414        2       0.61788016      -0.00000659      -0.00000987      -0.00775343       0.00000051       0.00000077      -0.02163578      23.59216916       0.00000206      23.90258828       2.84354556      -0.00000000       0.00000022      -0.00000000       2.84354424       0.00000033       0.00000013       0.00000019       2.84494312
Ba       0.00000068       3.93203344      11.95129414        2       0.61788016      -0.00000651      -0.00000984      -0.00775341       0.00000051       0.00000077      -0.02163578       0.00000136       7.86406688      23.90258828       2.84354556      -0.00000000       0.00000022       0.00000000       2.84354424       0.00000033       0.00000013       0.00000019       2.84494311
Ba       3.93202865       3.93203345      11.95129414        2       0.61788016      -0.00000660      -0.00000993      -0.00775341       0.00000051       0.00000077      -0.02163578       7.86405730       7.86406690      23.90258828       2.84354556      -0.00000000       0.00000022       0.00000000       2.84354424       0.00000033       0.00000013       0.00000019       2.84494312
Ba       7.86405661       3.93203345      11.95129414        2       0.61788016      -0.00000650      -0.00000986      -0.00775343       0.00000051       0.00000077      -0.02163578      15.72811322       7.86406690      23.90258828       2.84354556      -0.00000000       0.00000022       0.00000000       2.84354424       0.00000033       0.00000013       0.00000019       2.84494312
Ba      11.79608458       3.93203345      11.95129414        2       0.61788016      -0.00000655      -0.00000990      -0.00775346       0.00000051       0.00000077      -0.02163578      23.59216916       7.86406690      23.90258828       2.84354556      -0.00000000       0.00000022      -0.00000001       2.84354424       0.00000033       0.00000013       0.00000019       2.84494312
Ba       0.00000069       7.86406586      11.95129414        2       0.61788016      -0.00000659      -0.00000988      -0.00775337       0.00000051       0.00000077      -0.02163578       0.00000138      15.72813172      23.90258828       2.84354556       0.00000000       0.00000022      -0.00000000       2.84354424       0.00000033       0.00000013       0.00000019       2.84494312
Ba       3.93202865       7.86406587      11.95129414        2       0.61788016      -0.00000653      -0.00000990      -0.00775343       0.00000051       0.00000077      -0.02163578       7.86405730      15.72813174      23.90258828       2.84354556      -0.00000001       0.00000022       0.00000000       2.84354424       0.00000033       0.00000013       0.00000019       2.84494312
Ba       7.86405662       7.86406587      11.95129414        2       0.61788016      -0.00000657      -0.00000989      -0.00775343       0.00000051       0.00000077      -0.02163578      15.72811324      15.72813174      23.90258828       2.84354556       0.00000000       0.00000023      -0.00000000       2.84354424       0.00000033       0.00000013       0.00000019       2.84494312
Ba      11.79608458       7.86406587      11.95129414        2       0.61788016      -0.00000653      -0.00000985      -0.00775347       0.00000051       0.00000077      -0.02163578      23.59216916      15.72813174      23.90258828       2.84354556      -0.00000001       0.00000022      -0.00000001       2.84354424       0.00000033       0.00000013       0.00000019       2.84494311
Ba       0.00000069      11.79609828      11.95129414        2       0.61788016      -0.00000655      -0.00000987      -0.00775337       0.00000051       0.00000077      -0.02163578       0.00000138      23.59219656      23.90258828       2.84354555      -0.00000000       0.00000023      -0.00000000       2.84354424       0.00000033       0.00000013       0.00000019       2.84494311
Ba       3.93202866      11.79609829      11.95129414        2       0.61788016      -0.00000657      -0.00000989      -0.00775344       0.00000051       0.00000077      -0.02163578       7.86405732      23.59219658      23.90258828       2.84354556      -0.00000000       0.00000022       0.00000000       2.84354424       0.00000033       0.00000013       0.00000019       2.84494312
Ba       7.86405662      11.79609829      11.95129414        2       0.61788016      -0.00000653      -0.00000990      -0.00775344       0.00000051       0.00000077      -0.02163578      15.72811324      23.59219658      23.90258828       2.84354556      -0.00000000       0.00000023      -0.00000000       2.84354424       0.00000033       0.00000013       0.00000019       2.84494312
Ba      11.79608459      11.79609829      11.95129414        2       0.61788016      -0.00000660      -0.00000985      -0.00775346       0.00000052       0.00000077      -0.02163578      23.59216918      23.59219658      23.90258828       2.84354556      -0.00000000       0.00000022      -0.00000001       2.84354424       0.00000033       0.00000013       0.00000019       2.84494312
O        1.96601380      15.72812931       2.04881606       -2       0.26410426       0.00000058       0.00000392       0.01006596       0.00000020      -0.00000010      -0.00365138      -3.93202760     -31.45625862      -4.09763212      -2.08966490       0.00000000      -0.00000010       0.00000000      -5.74989585      -0.00000003      -0.00000011       0.00000012      -2.10502583
O        5.89804177      15.72812931       2.04881605       -2       0.26410427       0.00000052       0.00000390       0.01006603       0.00000020      -0.00000010      -0.00365138     -11.79608354     -31.45625862      -4.09763210      -2.08966490       0.00000000      -0.00000010      -0.00000000      -5.74989585      -0.00000003      -0.00000011       0.00000012      -2.10502583
O        9.83006973      15.72812931       2.04881605       -2       0.26410427       0.00000058       0.00000398       0.01006602       0.00000020      -0.00000011      -0.00365138     -19.66013946     -31.45625862      -4.09763210      -2.08966490      -0.00000000      -0.00000010       0.00000000      -5.74989585      -0.00000004      -0.00000011       0.00000011      -2.10502583
O       13.76209770      15.72812932       2.04881605       -2       0.26410427       0.00000052       0.00000389       0.01006600       0.00000020      -0.00000010      -0.00365138     -27.52419540     -31.45625864      -4.09763210      -2.08966490       0.00000000      -0.00000010      -0.00000000      -5.74989585      -0.00000004      -0.00000011       0.00000011      -2.10502583
O        1.96601379       3.93203205       2.04881606       -2       0.26410426       0.00000059       0.00000389       0.01006595       0.00000020      -0.00000010      -0.00365138      -3.93202758      -7.86406410      -4.09763212      -2.08966490       0.00000000      -0.00000010       0.00000000      -5.74989584      -0.00000003      -0.00000011       0.00000012      -2.10502583
O        5.89804176       3.93203205       2.04881606       -2       0.26410427       0.00000053       0.00000394       0.01006596       0.00000020      -0.00000010      -0.00365138     -11.79608352      -7.86406410      -4.09763212      -2.08966490       0.00000000      -0.00000010       0.00000000      -5.74989585      -0.00000003      -0.00000011       0.00000012      -2.10502583
O        9.83006972       3.93203205       2.04881606       -2       0.26410427       0.00000059       0.00000395       0.01006595       0.00000020      -0.00000011      -0.00365138     -19.66013944      -7.86406410      -4.09763212      -2.08966490       0.00000000      -0.00000010       0.00000000      -5.74989584      -0.00000003      -0.00000011       0.00000012      -2.10502583
O       13.76209769       3.93203206       2.04881605       -2       0.26410427       0.00000055       0.00000394       0.01006602       0.00000020      -0.00000010      -0.00365138     -27.52419538      -7.86406412      -4.09763210      -2.08966490      -0.00000001      -0.00000010      -0.00000001      -5.74989585      -0.00000002      -0.00000011       0.00000013      -2.10502583
O        1.96601380       7.86406447       2.04881606       -2       0.26410427       0.00000054       0.00000391       0.01006595       0.00000020      -0.00000010      -0.00365138      -3.93202760     -15.72812894      -4.09763212      -2.08966490       0.00000000      -0.00000010       0.00000000      -5.74989585      -0.00000003      -0.00000011       0.00000012      -2.10502583
O        5.89804176       7.86406447       2.04881606       -2       0.26410426       0.00000058       0.00000388       0.01006596       0.00000020      -0.00000010      -0.00365138     -11.79608352     -15.72812894      -4.09763212      -2.08966490      -0.00000001      -0.00000010      -0.00000001      -5.74989584      -0.00000003      -0.00000011       0.00000012      -2.10502583
O        9.83006973       7.86406447       2.04881606       -2       0.26410427       0.00000054       0.00000401       0.01006596       0.00000020      -0.00000011      -0.00365138     -19.66013946     -15.72812894      -4.09763212      -2.08966490       0.00000000      -0.00000010       0.00000000      -5.74989585      -0.00000003      -0.00000011       0.00000012      -2.10502583
O       13.76209769       7.86406448       2.04881605       -2       0.26410427       0.00000060       0.00000386       0.01006599       0.00000019      -0.00000010      -0.00365138     -27.52419538     -15.72812896      -4.09763210      -2.08966490       0.00000000      -0.00000010       0.00000000      -5.74989584      -0.00000003      -0.00000011       0.00000012      -2.10502584
O        1.96601380      11.79609689       2.04881606       -2       0.26410426       0.00000057       0.00000391       0.01006596       0.00000020      -0.00000010      -0.00365138      -3.93202760     -23.59219378      -4.09763212      -2.08966490      -0.00000002      -0.00000010      -0.00000001      -5.74989585      -0.00000003      -0.00000011       0.00000012      -2.10502583
O        5.89804177      11.79609689       2.04881606       -2       0.26410427       0.00000053       0.00000391       0.01006597       0.00000020      -0.00000010      -0.00365138     -11.79608354     -23.59219378      -4.09763212      -2.08966490      -0.00000000      -0.00000010      -0.00000000      -5.74989584      -0.00000003      -0.00000011       0.00000012      -2.10502583
O        9.83006973      11.79609689       2.04881605       -2       0.26410426       0.00000056       0.00000399       0.01006602       0.00000020      -0.00000011      -0.00365138     -19.66013946     -23.59219378      -4.09763210      -2.08966490      -0.00000002      -0.00000010      -0.00000001      -5.74989585      -0.00000002      -0.00000011       0.00000014      -2.10502583
O       13.76209770      11.79609690       2.04881605       -2       0.26410428       0.00000053       0.00000393       0.01006597       0.00000020      -0.00000010      -0.00365138     -27.52419540     -23.59219380      -4.09763210      -2.08966490      -0.00000000      -0.00000010      -0.00000000      -5.74989584      -0.00000003      -0.00000011       0.00000011      -2.10502583
O        1.96601380      15.72812931       6.03102491       -2       0.26410427       0.00000056       0.00000390       0.01006595       0.00000020      -0.00000010      -0.00365138      -3.93202760     -31.45625862     -12.06204982      -2.08966490       0.00000000      -0.00000010       0.00000000      -5.74989585      -0.00000003      -0.00000011       0.00000012      -2.10502583
O        5.89804177      15.72812931       6.03102490       -2       0.26410427       0.00000053       0.00000389       0.01006601       0.00000020      -0.00000010      -0.00365138     -11.79608354     -31.45625862     -12.06204980      -2.08966490      -0.00000000      -0.00000010      -0.00000000      -5.74989585      -0.00000004      -0.00000011       0.00000010      -2.10502583
O        9.83006973      15.72812931       6.03102490       -2       0.26410427       0.00000057       0.00000399       0.01006600       0.00000020      -0.00000011      -0.00365138     -19.66013946     -31.45625862     -12.06204980      -2.08966490      -0.00000002      -0.00000010      -0.00000001      -5.74989585      -0.00000004      -0.00000011       0.00000011      -2.10502583
O       13.76209770      15.72812932       6.03102490       -2       0.26410427       0.00000053       0.00000386       0.01006598       0.00000020      -0.00000010      -0.00365138     -27.52419540     -31.45625864     -12.06204980      -2.08966490      -0.00000000      -0.00000010      -0.00000000      -5.74989584      -0.00000003      -0.00000011       0.00000012      -2.10502584
O        1.96601379       3.93203205       6.03102491       -2       0.26410426       0.00000059       0.00000388       0.01006595       0.00000020      -0.00000010      -0.00365138      -3.93202758      -7.86406410     -12.06204982      -2.08966490      -0.00000001      -0.00000010      -0.00000001      -5.74989584      -0.00000003      -0.00000011       0.00000012      -2.10502583
O        5.89804176       3.93203205       6.03102491       -2       0.26410427       0.00000054       0.00000394       0.01006595       0.00000020      -0.00000010      -0.00365138     -11.79608352      -7.86406410     -12.06204982      -2.08966490       0.00000000      -0.00000010       0.00000000      -5.74989585      -0.00000003      -0.00000011       0.00000012      -2.10502583
O        9.83006972       3.93203205       6.03102490       -2       0.26410426       0.00000060       0.00000394       0.01006604       0.00000020      -0.00000010      -0.00365138     -19.66013944      -7.86406410     -12.06204980      -2.08966490       0.00000000      -0.00000010       0.00000000      -5.74989585      -0.00000003      -0.00000011       0.00000012      -2.10502583
O       13.76209769       3.93203205       6.03102490       -2       0.26410428       0.00000053       0.00000404       0.01006598       0.00000020      -0.00000008      -0.00365138     -27.52419538      -7.86406410     -12.06204980      -2.08966490       0.00000000      -0.00000010       0.00000000      -5.74989584      -0.00000004      -0.00000011       0.00000011      -2.10502583
O        1.96601380       7.86406447       6.03102491       -2       0.26410427       0.00000053       0.00000390       0.01006595       0.00000020      -0.00000010      -0.00365138      -3.93202760     -15.72812894     -12.06204982      -2.08966490      -0.00000000      -0.00000010      -0.00000000      -5.74989584      -0.00000003      -0.00000011       0.00000012      -2.10502583
O        5.89804176       7.86406447       6.03102491       -2       0.26410426       0.00000057       0.00000391       0.01006596       0.00000020      -0.00000010      -0.00365138     -11.79608352     -15.72812894     -12.06204982      -2.08966490      -0.00000002      -0.00000010      -0.00000001      -5.74989585      -0.00000003      -0.00000011       0.00000012      -2.10502583
O        9.83006973       7.86406447       6.03102490       -2       0.26410428       0.00000053       0.00000394       0.01006601       0.00000020      -0.00000010      -0.00365138     -19.66013946     -15.72812894     -12.06204980      -2.08966490      -0.00000001      -0.00000010      -0.00000000      -5.74989584      -0.00000002      -0.00000011       0.00000014      -2.10502583
O       13.76209769       7.86406448       6.03102490       -2       0.26410427       0.00000057       0.00000390       0.01006597       0.00000020      -0.00000010      -0.00365138     -27.52419538     -15.72812896     -12.06204980      -2.08966490      -0.00000002      -0.00000010      -0.00000001      -5.74989585      -0.00000003      -0.00000011       0.00000011      -2.10502583
O        1.96601380      11.79609689       6.03102491       -2       0.26410427       0.00000053       0.00000394       0.01006596       0.00000020      -0.00000010      -0.00365138      -3.93202760     -23.59219378     -12.06204982      -2.08966490       0.00000000      -0.00000010       0.00000000      -5.74989585      -0.00000003      -0.00000011       0.00000012      -2.10502583
O        5.89804176      11.79609689       6.03102490       -2       0.26410427       0.00000060       0.00000388       0.01006602       0.00000020      -0.00000010      -0.00365138     -11.79608352     -23.59219378     -12.06204980      -2.08966490       0.00000000      -0.00000010       0.00000000      -5.74989585      -0.00000002      -0.00000011       0.00000013      -2.10502583
O        9.83006973      11.79609689       6.03102490       -2       0.26410428       0.00000054       0.00000400       0.01006599       0.00000020      -0.00000011      -0.00365138     -19.66013946     -23.59219378     -12.06204980      -2.08966490       0.00000000      -0.00000010       0.00000000      -5.74989584      -0.00000003      -0.00000011       0.00000012      -2.10502584
O       13.76209769      11.79609690       6.03102490       -2       0.26410426       0.00000060       0.00000389       0.01006596       0.00000020      -0.00000010      -0.00365138     -27.52419538     -23.59219380     -12.06204980      -2.08966490       0.00000000      -0.00000010       0.00000000      -5.74989584      -0.00000003      -0.00000011       0.00000012      -2.10502583
O        1.96601380      15.72812931      10.01323375       -2       0.26410425       0.00000055       0.00000383       0.01006603       0.00000020      -0.00000011      -0.00365138      -3.93202760     -31.45625862     -20.02646750      -2.08966488       0.00000000      -0.00000010       0.00000000      -5.74989590      -0.00000002      -0.00000011       0.00000012      -2.10502582
O        5.89804177      15.72812931      10.01323375       -2       0.26410427       0.00000054       0.00000392       0.01006601       0.00000020      -0.00000010      -0.00365138     -11.79608354     -31.45625862     -20.02646750      -2.08966490      -0.00000000      -0.00000010      -0.00000000      -5.74989584      -0.00000004      -0.00000011       0.00000010      -2.10502583
O        9.83006973      15.72812931      10.01323375       -2       0.26410428       0.00000054       0.00000393       0.01006599       0.00000020      -0.00000010      -0.00365138     -19.66013946     -31.45625862     -20.02646750      -2.08966490      -0.00000000      -0.00000010       0.00000000      -5.74989585      -0.00000003      -0.00000011       0.00000013      -2.10502583
O       13.76209770      15.72812931      10.01323375       -2       0.26410426       0.00000055       0.00000393       0.01006597       0.00000020      -0.00000009      -0.00365138     -27.52419540     -31.45625862     -20.02646750      -2.08966489      -0.00000000      -0.00000010       0.00000000      -5.74989587      -0.00000003      -0.00000011       0.00000012      -2.10502582
O        1.96601379       3.93203204      10.01323376       -2       0.26410429       0.00000057       0.00000403       0.01006596       0.00000020      -0.00000010      -0.00365138      -3.93202758      -7.86406408     -20.02646752      -2.08966491      -0.00000001      -0.00000010      -0.00000001      -5.74989581      -0.00000003      -0.00000011       0.00000011      -2.10502585
O        5.89804176       3.93203205      10.01323376       -2       0.26410427       0.00000053       0.00000390       0.01006597       0.00000020      -0.00000010      -0.00365138     -11.79608352      -7.86406410     -20.02646752      -2.08966490      -0.00000000      -0.00000010      -0.00000000      -5.74989584      -0.00000003      -0.00000011       0.00000012      -2.10502583
O        9.83006972       3.93203205      10.01323375       -2       0.26410427       0.00000058       0.00000391       0.01006599       0.00000020      -0.00000010      -0.00365138     -19.66013944      -7.86406410     -20.02646750      -2.08966490      -0.00000002      -0.00000010      -0.00000001      -5.74989585      -0.00000003      -0.00000011       0.00000012      -2.10502584
O       13.76209769       3.93203205      10.01323375       -2       0.26410429       0.00000051       0.00000400       0.01006597       0.00000020      -0.00000010      -0.00365138     -27.52419538      -7.86406410     -20.02646750      -2.08966491      -0.00000000      -0.00000010      -0.00000000      -5.74989580      -0.00000004      -0.00000011       0.00000011      -2.10502584
O        1.96601379       7.86406446      10.01323376       -2       0.26410427       0.00000059       0.00000398       0.01006596       0.00000020      -0.00000008      -0.00365138      -3.93202758     -15.72812892     -20.02646752      -2.08966490       0.00000000      -0.00000010       0.00000000      -5.74989584      -0.00000004      -0.00000011       0.00000011      -2.10502583
O        5.89804176       7.86406447      10.01323375       -2       0.26410427       0.00000055       0.00000394       0.01006602       0.00000020      -0.00000010      -0.00365138     -11.79608352     -15.72812894     -20.02646750      -2.08966490      -0.00000001      -0.00000010      -0.00000001      -5.74989585      -0.00000002      -0.00000011       0.00000014      -2.10502583
O        9.83006972       7.86406447      10.01323375       -2       0.26410427       0.00000058       0.00000392       0.01006597       0.00000020      -0.00000010      -0.00365138     -19.66013944     -15.72812894     -20.02646750      -2.08966490      -0.00000000      -0.00000010       0.00000000      -5.74989584      -0.00000003      -0.00000011       0.00000011      -2.10502584
O       13.76209769       7.86406447      10.01323375       -2       0.26410427       0.00000055       0.00000402       0.01006596       0.00000020      -0.00000009      -0.00365138     -27.52419538     -15.72812894     -20.02646750      -2.08966490      -0.00000001      -0.00000010      -0.00000001      -5.74989585      -0.00000004      -0.00000011       0.00000011      -2.10502583
O        1.96601380      11.79609688      10.01323375       -2       0.26410427       0.00000053       0.00000406       0.01006603       0.00000020      -0.00000009      -0.00365138      -3.93202760     -23.59219376     -20.02646750      -2.08966490       0.00000000      -0.00000010       0.00000000      -5.74989586      -0.00000004      -0.00000011       0.00000011      -2.10502583
O        5.89804176      11.79609689      10.01323375       -2       0.26410427       0.00000060       0.00000386       0.01006599       0.00000020      -0.00000010      -0.00365138     -11.79608352     -23.59219378     -20.02646750      -2.08966490       0.00000000      -0.00000010       0.00000000      -5.74989584      -0.00000003      -0.00000011       0.00000012      -2.10502584
O        9.83006973      11.79609689      10.01323375       -2       0.26410427       0.00000053       0.00000397       0.01006596       0.00000020      -0.00000010      -0.00365138     -19.66013946     -23.59219378     -20.02646750      -2.08966490      -0.00000000      -0.00000010       0.00000000      -5.74989585      -0.00000003      -0.00000011       0.00000012      -2.10502583
O       13.76209769      11.79609689      10.01323375       -2       0.26410427       0.00000060       0.00000398       0.01006596       0.00000019      -0.00000008      -0.00365138     -27.52419538     -23.59219378     -20.02646750      -2.08966490       0.00000000      -0.00000010       0.00000000      -5.74989585      -0.00000004      -0.00000011       0.00000010      -2.10502583
O        1.96601380      15.72812930      13.99544260       -2       0.26410428       0.00000052       0.00000401       0.01006601       0.00000020      -0.00000011      -0.00365138      -3.93202760     -31.45625860     -27.99088520      -2.08966490       0.00000000      -0.00000010       0.00000000      -5.74989585      -0.00000004      -0.00000011       0.00000011      -2.10502583
O        5.89804176      15.72812931      13.99544260       -2       0.26410426       0.00000058       0.00000388       0.01006598       0.00000020      -0.00000010      -0.00365138     -11.79608352     -31.45625862     -27.99088520      -2.08966490      -0.00000000      -0.00000010      -0.00000000      -5.74989585      -0.00000003      -0.00000011       0.00000012      -2.10502584
O        9.83006973      15.72812931      13.99544260       -2       0.26410427       0.00000052       0.00000390       0.01006599       0.00000020      -0.00000010      -0.00365138     -19.66013946     -31.45625862     -27.99088520      -2.08966490       0.00000000      -0.00000010      -0.00000000      -5.74989585      -0.00000003      -0.00000011       0.00000012      -2.10502583
O       13.76209769      15.72812931      13.99544260       -2       0.26410426       0.00000058       0.00000399       0.01006596       0.00000020      -0.00000011      -0.00365138     -27.52419538     -31.45625862     -27.99088520      -2.08966490      -0.00000000      -0.00000010       0.00000000      -5.74989586      -0.00000003      -0.00000011       0.00000013      -2.10502583
O        1.96601379       3.93203204      13.99544261       -2       0.26410427       0.00000055       0.00000404       0.01006596       0.00000020      -0.00000011      -0.00365138      -3.93202758      -7.86406408     -27.99088522      -2.08966490      -0.00000001      -0.00000010      -0.00000001      -5.74989585      -0.00000003      -0.00000011       0.00000012      -2.10502583
O        5.89804175       3.93203205      13.99544260       -2       0.26410427       0.00000058       0.00000389       0.01006599       0.00000019      -0.00000010      -0.00365138     -11.79608350      -7.86406410     -27.99088520      -2.08966490       0.00000000      -0.00000010       0.00000000      -5.74989585      -0.00000003      -0.00000011       0.00000012      -2.10502584
O        9.83006972       3.93203205      13.99544260       -2       0.26410427       0.00000055       0.00000398       0.01006599       0.00000020      -0.00000010      -0.00365138     -19.66013944      -7.86406410     -27.99088520      -2.08966490      -0.00000001      -0.00000010      -0.00000001      -5.74989585      -0.00000003      -0.00000011       0.00000011      -2.10502583
O       13.76209768       3.93203205      13.99544260       -2       0.26410426       0.00000057       0.00000397       0.01006598       0.00000019      -0.00000011      -0.00365138     -27.52419536      -7.86406410     -27.99088520      -2.08966490      -0.00000000      -0.00000010       0.00000000      -5.74989585      -0.00000003      -0.00000011       0.00000013      -2.10502583
O        1.96601379       7.86406446      13.99544260       -2       0.26410427       0.00000059       0.00000399       0.01006601       0.00000019      -0.00000011      -0.00365138      -3.93202758     -15.72812892     -27.99088520      -2.08966490       0.00000001      -0.00000010       0.00000000      -5.74989585      -0.00000002      -0.00000011       0.00000014      -2.10502583
O        5.89804176       7.86406447      13.99544260       -2       0.26410427       0.00000053       0.00000393       0.01006600       0.00000020      -0.00000010      -0.00365138     -11.79608352     -15.72812894     -27.99088520      -2.08966490       0.00000000      -0.00000010       0.00000000      -5.74989585      -0.00000003      -0.00000011       0.00000012      -2.10502584
O        9.83006972       7.86406447      13.99544260       -2       0.26410426       0.00000059       0.00000391       0.01006598       0.00000019      -0.00000010      -0.00365138     -19.66013944     -15.72812894     -27.99088520      -2.08966490       0.00000001      -0.00000010       0.00000000      -5.74989585      -0.00000003      -0.00000011       0.00000012      -2.10502583
O       13.76209769       7.86406447      13.99544260       -2       0.26410426       0.00000053       0.00000401       0.01006598       0.00000020      -0.00000011      -0.00365138     -27.52419538     -15.72812894     -27.99088520      -2.08966490       0.00000000      -0.00000010       0.00000000      -5.74989585      -0.00000003      -0.00000011       0.00000013      -2.10502583
O        1.96601380      11.79609688      13.99544260       -2       0.26410427       0.00000053       0.00000401       0.01006599       0.00000020      -0.00000011      -0.00365138      -3.93202760     -23.59219376     -27.99088520      -2.08966490       0.00000000      -0.00000010      -0.00000000      -5.74989584      -0.00000003      -0.00000011       0.00000012      -2.10502584
O        5.89804176      11.79609689      13.99544260       -2       0.26410426       0.00000057       0.00000393       0.01006598       0.00000020      -0.00000010      -0.00365138     -11.79608352     -23.59219378     -27.99088520      -2.08966490      -0.00000002      -0.00000010      -0.00000001      -5.74989585      -0.00000003      -0.00000011       0.00000011      -2.10502584
O        9.83006973      11.79609689      13.99544260       -2       0.26410427       0.00000053       0.00000394       0.01006598       0.00000020      -0.00000010      -0.00365138     -19.66013946     -23.59219378     -27.99088520      -2.08966490       0.00000000      -0.00000010      -0.00000000      -5.74989585      -0.00000003      -0.00000011       0.00000012      -2.10502583
O       13.76209769      11.79609689      13.99544260       -2       0.26410426       0.00000056       0.00000396       0.01006597       0.00000020      -0.00000011      -0.00365138     -27.52419538     -23.59219378     -27.99088520      -2.08966490      -0.00000002      -0.00000010      -0.00000001      -5.74989585      -0.00000003      -0.00000011       0.00000013      -2.10502583
O       15.72811160       1.96601594       2.04883240       -2       0.26410308       0.00000267       0.00000087       0.00998435       0.00000000       0.00000030      -0.00364495     -31.45622320      -3.93203188      -4.09766480      -5.74989542      -0.00000000      -0.00000006       0.00000000      -2.08965993      -0.00000015       0.00000004      -0.00000017      -2.10502190
O        3.93202771       1.96601593       2.04883241       -2       0.26410306       0.00000252       0.00000087       0.00998434      -0.00000000       0.00000030      -0.00364495      -7.86405542      -3.93203186      -4.09766482      -5.74989546      -0.00000000      -0.00000006       0.00000000      -2.08965992      -0.00000015       0.00000003      -0.00000017      -2.10502189
O        7.86405567       1.96601593       2.04883241       -2       0.26410309       0.00000265       0.00000087       0.00998432       0.00000000       0.00000030      -0.00364495     -15.72811134      -3.93203186      -4.09766482      -5.74989542      -0.00000000      -0.00000006       0.00000000      -2.08965993      -0.00000015       0.00000003      -0.00000017      -2.10502190
O       11.79608364       1.96601594       2.04883240       -2       0.26410306       0.00000253       0.00000084       0.00998442      -0.00000000       0.00000030      -0.00364495     -23.59216728      -3.93203188      -4.09766480      -5.74989547      -0.00000001      -0.00000006      -0.00000001      -2.08965992      -0.00000015       0.00000003      -0.00000017      -2.10502189
O       15.72811161       5.89804836       2.04883240       -2       0.26410306       0.00000253       0.00000088       0.00998435      -0.00000000       0.00000030      -0.00364495     -31.45622322     -11.79609672      -4.09766480      -5.74989546       0.00000000      -0.00000006      -0.00000000      -2.08965992      -0.00000015       0.00000002      -0.00000017      -2.10502189
O        3.93202771       5.89804835       2.04883241       -2       0.26410307       0.00000261       0.00000085       0.00998433      -0.00000001       0.00000030      -0.00364495      -7.86405542     -11.79609670      -4.09766482      -5.74989545       0.00000000      -0.00000006       0.00000000      -2.08965992      -0.00000015       0.00000004      -0.00000017      -2.10502189
O        7.86405568       5.89804835       2.04883241       -2       0.26410308       0.00000251       0.00000088       0.00998432      -0.00000001       0.00000030      -0.00364495     -15.72811136     -11.79609670      -4.09766482      -5.74989542      -0.00000000      -0.00000005      -0.00000000      -2.08965993      -0.00000015       0.00000004      -0.00000017      -2.10502191
O       11.79608364       5.89804836       2.04883240       -2       0.26410309       0.00000263       0.00000082       0.00998439       0.00000001       0.00000030      -0.00364495     -23.59216728     -11.79609672      -4.09766480      -5.74989542      -0.00000001      -0.00000005      -0.00000001      -2.08965993      -0.00000015       0.00000004      -0.00000017      -2.10502190
O       15.72811161       9.83008078       2.04883240       -2       0.26410307       0.00000264       0.00000086       0.00998435      -0.00000001       0.00000030      -0.00364495     -31.45622322     -19.66016156      -4.09766480      -5.74989545       0.00000000      -0.00000006      -0.00000000      -2.08965992      -0.00000015       0.00000003      -0.00000017      -2.10502189
O        3.93202772       9.83008077       2.04883241       -2       0.26410308       0.00000253       0.00000087       0.00998433      -0.00000001       0.00000030      -0.00364495      -7.86405544     -19.66016154      -4.09766482      -5.74989542       0.00000000      -0.00000005      -0.00000000      -2.08965993      -0.00000015       0.00000004      -0.00000017      -2.10502190
O        7.86405568       9.83008077       2.04883240       -2       0.26410307       0.00000262       0.00000086       0.00998441      -0.00000001       0.00000030      -0.00364495     -15.72811136     -19.66016154      -4.09766480      -5.74989546      -0.00000000      -0.00000005       0.00000000      -2.08965992      -0.00000015       0.00000004      -0.00000017      -2.10502189
O       11.79608365       9.83008078       2.04883240       -2       0.26410308       0.00000251       0.00000085       0.00998438      -0.00000001       0.00000030      -0.00364495     -23.59216730     -19.66016156      -4.09766480      -5.74989542      -0.00000001      -0.00000004      -0.00000001      -2.08965993      -0.00000015       0.00000005      -0.00000017      -2.10502191
O       15.72811161      13.76211320       2.04883240       -2       0.26410308       0.00000265       0.00000087       0.00998432       0.00000000       0.00000030      -0.00364494     -31.45622322     -27.52422640      -4.09766480      -5.74989541      -0.00000000      -0.00000006      -0.00000000      -2.08965993      -0.00000015       0.00000003      -0.00000016      -2.10502191
O        3.93202772      13.76211319       2.04883240       -2       0.26410306       0.00000253       0.00000087       0.00998442      -0.00000000       0.00000030      -0.00364495      -7.86405544     -27.52422638      -4.09766480      -5.74989547      -0.00000000      -0.00000006       0.00000000      -2.08965992      -0.00000015       0.00000003      -0.00000017      -2.10502189
O        7.86405568      13.76211319       2.04883240       -2       0.26410309       0.00000266       0.00000087       0.00998438       0.00000000       0.00000030      -0.00364495     -15.72811136     -27.52422638      -4.09766480      -5.74989542      -0.00000000      -0.00000005       0.00000000      -2.08965993      -0.00000015       0.00000004      -0.00000017      -2.10502190
O       11.79608365      13.76211320       2.04883240       -2       0.26410306       0.00000254       0.00000084       0.00998438      -0.00000000       0.00000030      -0.00364495     -23.59216730     -27.52422640      -4.09766480      -5.74989545      -0.00000001      -0.00000006      -0.00000001      -2.08965992      -0.00000015       0.00000003      -0.00000017      -2.10502190
O       15.72811160       1.96601594       6.03104125       -2       0.26410307       0.00000267       0.00000084       0.00998435      -0.00000001       0.00000030      -0.00364495     -31.45622320      -3.93203188     -12.06208250      -5.74989545       0.00000000      -0.00000006       0.00000001      -2.08965992      -0.00000015       0.00000003      -0.00000017      -2.10502189
O        3.93202771       1.96601593       6.03104126       -2       0.26410308       0.00000252       0.00000086       0.00998432      -0.00000002       0.00000030      -0.00364495      -7.86405542      -3.93203186     -12.06208252      -5.74989542       0.00000000      -0.00000005       0.00000000      -2.08965993      -0.00000015       0.00000004      -0.00000017      -2.10502191
O        7.86405567       1.96601593       6.03104125       -2       0.26410309       0.00000265       0.00000087       0.00998441       0.00000001       0.00000030      -0.00364495     -15.72811134      -3.93203186     -12.06208250      -5.74989543      -0.00000000      -0.00000006       0.00000000      -2.08965993      -0.00000015       0.00000003      -0.00000017      -2.10502190
O       11.79608364       1.96601594       6.03104125       -2       0.26410306       0.00000250       0.00000082       0.00998439      -0.00000000       0.00000030      -0.00364495     -23.59216728      -3.93203188     -12.06208250      -5.74989546      -0.00000001      -0.00000005      -0.00000001      -2.08965992      -0.00000016       0.00000004      -0.00000017      -2.10502189
O       15.72811161       5.89804836       6.03104125       -2       0.26410308       0.00000252       0.00000087       0.00998434      -0.00000001       0.00000030      -0.00364495     -31.45622322     -11.79609672     -12.06208250      -5.74989542       0.00000000      -0.00000005       0.00000000      -2.08965993      -0.00000015       0.00000003      -0.00000017      -2.10502191
O        3.93202771       5.89804835       6.03104126       -2       0.26410307       0.00000262       0.00000085       0.00998433      -0.00000001       0.00000030      -0.00364495      -7.86405542     -11.79609670     -12.06208252      -5.74989545       0.00000000      -0.00000006      -0.00000000      -2.08965992      -0.00000015       0.00000004      -0.00000017      -2.10502189
O        7.86405568       5.89804835       6.03104125       -2       0.26410308       0.00000253       0.00000088       0.00998440      -0.00000001       0.00000030      -0.00364495     -15.72811136     -11.79609670     -12.06208250      -5.74989543      -0.00000000      -0.00000005      -0.00000000      -2.08965993      -0.00000015       0.00000004      -0.00000017      -2.10502190
O       11.79608364       5.89804836       6.03104125       -2       0.26410307       0.00000263       0.00000080       0.00998439      -0.00000001       0.00000030      -0.00364495     -23.59216728     -11.79609672     -12.06208250      -5.74989546      -0.00000001      -0.00000005      -0.00000002      -2.08965992      -0.00000016       0.00000005      -0.00000017      -2.10502189
O       15.72811161       9.83008078       6.03104125       -2       0.26410306       0.00000253       0.00000087       0.00998434      -0.00000000       0.00000030      -0.00364495     -31.45622322     -19.66016156     -12.06208250      -5.74989546      -0.00000000      -0.00000006       0.00000000      -2.08965992      -0.00000015       0.00000003      -0.00000017      -2.10502189
O        3.93202771       9.83008077       6.03104125       -2       0.26410309       0.00000266       0.00000087       0.00998439       0.00000000       0.00000030      -0.00364495      -7.86405542     -19.66016154     -12.06208250      -5.74989543      -0.00000000      -0.00000006       0.00000000      -2.08965993      -0.00000015       0.00000003      -0.00000017      -2.10502190
O        7.86405568       9.83008077       6.03104125       -2       0.26410306       0.00000251       0.00000087       0.00998439      -0.00000000       0.00000030      -0.00364495     -15.72811136     -19.66016154     -12.06208250      -5.74989546      -0.00000000      -0.00000005       0.00000000      -2.08965992      -0.00000015       0.00000005      -0.00000017      -2.10502189
O       11.79608364       9.83008078       6.03104125       -2       0.26410309       0.00000268       0.00000084       0.00998434       0.00000000       0.00000030      -0.00364494     -23.59216728     -19.66016156     -12.06208250      -5.74989541      -0.00000001      -0.00000007      -0.00000001      -2.08965993      -0.00000015       0.00000002      -0.00000017      -2.10502191
O       15.72811161      13.76211320       6.03104125       -2       0.26410306       0.00000262       0.00000085       0.00998433      -0.00000001       0.00000030      -0.00364495     -31.45622322     -27.52422640     -12.06208250      -5.74989545       0.00000000      -0.00000006      -0.00000000      -2.08965992      -0.00000015       0.00000004      -0.00000017      -2.10502189
O        3.93202772      13.76211319       6.03104125       -2       0.26410308       0.00000253       0.00000088       0.00998438      -0.00000001       0.00000030      -0.00364495      -7.86405544     -27.52422638     -12.06208250      -5.74989542       0.00000000      -0.00000004      -0.00000000      -2.08965993      -0.00000015       0.00000005      -0.00000017      -2.10502191
O        7.86405568      13.76211319       6.03104125       -2       0.26410307       0.00000260       0.00000085       0.00998437      -0.00000000       0.00000030      -0.00364495     -15.72811136     -27.52422638     -12.06208250      -5.74989545      -0.00000000      -0.00000006      -0.00000000      -2.08965992      -0.00000015       0.00000004      -0.00000017      -2.10502190
O       11.79608365      13.76211320       6.03104125       -2       0.26410308       0.00000256       0.00000085       0.00998435      -0.00000002       0.00000030      -0.00364495     -23.59216730     -27.52422640     -12.06208250      -5.74989541      -0.00000001      -0.00000005      -0.00000001      -2.08965993      -0.00000015       0.00000003      -0.00000017      -2.10502191
O       15.72811160       1.96601594      10.01325010       -2       0.26410308       0.00000264       0.00000078       0.00998435      -0.00000001       0.00000030      -0.00364495     -31.45622320      -3.93203188     -20.02650020      -5.74989544       0.00000000      -0.00000006       0.00000000      -2.08965992      -0.00000015       0.00000003      -0.00000017      -2.10502189
O        3.93202771       1.96601593      10.01325011       -2       0.26410308       0.00000256       0.00000084       0.00998434      -0.00000002       0.00000030      -0.00364495      -7.86405542      -3.93203186     -20.02650022      -5.74989542      -0.00000001      -0.00000005      -0.00000001      -2.08965993      -0.00000015       0.00000004      -0.00000017      -2.10502190
O        7.86405567       1.96601593      10.01325010       -2       0.26410307       0.00000264       0.00000087       0.00998439      -0.00000001       0.00000030      -0.00364495     -15.72811134      -3.93203186     -20.02650020      -5.74989546       0.00000000      -0.00000004       0.00000000      -2.08965992      -0.00000015       0.00000005      -0.00000017      -2.10502189
O       11.79608364       1.96601593      10.01325010       -2       0.26410308       0.00000250       0.00000086       0.00998436      -0.00000001       0.00000030      -0.00364495     -23.59216728      -3.93203186     -20.02650020      -5.74989541      -0.00000000      -0.00000005      -0.00000000      -2.08965993      -0.00000015       0.00000004      -0.00000017      -2.10502191
O       15.72811160       5.89804836      10.01325010       -2       0.26410309       0.00000265       0.00000082       0.00998432       0.00000000       0.00000030      -0.00364494     -31.45622320     -11.79609672     -20.02650020      -5.74989542      -0.00000000      -0.00000006       0.00000000      -2.08965993      -0.00000015       0.00000003      -0.00000017      -2.10502190
O        3.93202771       5.89804835      10.01325010       -2       0.26410306       0.00000254       0.00000085       0.00998442      -0.00000000       0.00000030      -0.00364495      -7.86405542     -11.79609670     -20.02650020      -5.74989547       0.00000000      -0.00000006       0.00000001      -2.08965992      -0.00000015       0.00000003      -0.00000017      -2.10502189
O        7.86405567       5.89804835      10.01325010       -2       0.26410309       0.00000264       0.00000087       0.00998437       0.00000001       0.00000030      -0.00364495     -15.72811134     -11.79609670     -20.02650020      -5.74989542      -0.00000000      -0.00000005       0.00000000      -2.08965993      -0.00000015       0.00000004      -0.00000017      -2.10502191
O       11.79608364       5.89804836      10.01325010       -2       0.26410306       0.00000253       0.00000081       0.00998436      -0.00000001       0.00000030      -0.00364495     -23.59216728     -11.79609672     -20.02650020      -5.74989545      -0.00000001      -0.00000006      -0.00000002      -2.08965992      -0.00000015       0.00000003      -0.00000017      -2.10502190
O       15.72811161       9.83008078      10.01325010       -2       0.26410306       0.00000251       0.00000083       0.00998434      -0.00000000       0.00000030      -0.00364495     -31.45622322     -19.66016156     -20.02650020      -5.74989545       0.00000000      -0.00000006      -0.00000000      -2.08965992      -0.00000016       0.00000003      -0.00000017      -2.10502189
O        3.93202771       9.83008077      10.01325010       -2       0.26410309       0.00000262       0.00000083       0.00998440       0.00000001       0.00000030      -0.00364495      -7.86405542     -19.66016154     -20.02650020      -5.74989542       0.00000001      -0.00000005       0.00000001      -2.08965993      -0.00000015       0.00000004      -0.00000017      -2.10502190
O        7.86405568       9.83008077      10.01325010       -2       0.26410306       0.00000251       0.00000088       0.00998436      -0.00000000       0.00000030      -0.00364495     -15.72811136     -19.66016154     -20.02650020      -5.74989545       0.00000000      -0.00000006      -0.00000000      -2.08965992      -0.00000015       0.00000002      -0.00000017      -2.10502190
O       11.79608364       9.83008078      10.01325010       -2       0.26410309       0.00000262       0.00000079       0.00998435       0.00000001       0.00000030      -0.00364495     -23.59216728     -19.66016156     -20.02650020      -5.74989542      -0.00000001      -0.00000006      -0.00000002      -2.08965993      -0.00000015       0.00000003      -0.00000017      -2.10502190
O       15.72811161      13.76211320      10.01325010       -2       0.26410306       0.00000264       0.00000082       0.00998434      -0.00000001       0.00000030      -0.00364495     -31.45622322     -27.52422640     -20.02650020      -5.74989545       0.00000000      -0.00000005       0.00000000      -2.08965992      -0.00000015       0.00000004      -0.00000017      -2.10502189
O        3.93202772      13.76211319      10.01325010       -2       0.26410308       0.00000247       0.00000087       0.00998439      -0.00000001       0.00000030      -0.00364495      -7.86405544     -27.52422638     -20.02650020      -5.74989542       0.00000000      -0.00000004       0.00000000      -2.08965993      -0.00000015       0.00000005      -0.00000017      -2.10502191
O        7.86405568      13.76211319      10.01325010       -2       0.26410307       0.00000264       0.00000085       0.00998436      -0.00000001       0.00000030      -0.00364495     -15.72811136     -27.52422638     -20.02650020      -5.74989545      -0.00000000      -0.00000006      -0.00000000      -2.08965992      -0.00000015       0.00000003      -0.00000017      -2.10502190
O       11.79608365      13.76211320      10.01325010       -2       0.26410308       0.00000254       0.00000082       0.00998434      -0.00000001       0.00000030      -0.00364494     -23.59216730     -27.52422640     -20.02650020      -5.74989542      -0.00000001      -0.00000005      -0.00000002      -2.08965993      -0.00000015       0.00000004      -0.00000017      -2.10502191
O       15.72811160       1.96601594      13.99545895       -2       0.26410306       0.00000252       0.00000081       0.00998436      -0.00000000       0.00000030      -0.00364495     -31.45622320      -3.93203188     -27.99091790      -5.74989546       0.00000000      -0.00000006      -0.00000000      -2.08965992      -0.00000015       0.00000003      -0.00000017      -2.10502189
O        3.93202770       1.96601593      13.99545895       -2       0.26410309       0.00000265       0.00000084       0.00998437       0.00000000       0.00000030      -0.00364495      -7.86405540      -3.93203186     -27.99091790      -5.74989542      -0.00000001      -0.00000005      -0.00000001      -2.08965993      -0.00000015       0.00000004      -0.00000017      -2.10502191
O        7.86405567       1.96601593      13.99545895       -2       0.26410306       0.00000253       0.00000087       0.00998438      -0.00000000       0.00000030      -0.00364495     -15.72811134      -3.93203186     -27.99091790      -5.74989545      -0.00000000      -0.00000006       0.00000000      -2.08965992      -0.00000015       0.00000003      -0.00000017      -2.10502190
O       11.79608363       1.96601593      13.99545895       -2       0.26410309       0.00000267       0.00000088       0.00998435       0.00000000       0.00000030      -0.00364495     -23.59216726      -3.93203186     -27.99091790      -5.74989542      -0.00000000      -0.00000007      -0.00000000      -2.08965993      -0.00000015       0.00000002      -0.00000016      -2.10502191
O       15.72811160       5.89804836      13.99545895       -2       0.26410308       0.00000258       0.00000080       0.00998435       0.00000001       0.00000031      -0.00364495     -31.45622320     -11.79609672     -27.99091790      -5.74989542       0.00000000      -0.00000007      -0.00000000      -2.08965993      -0.00000015       0.00000003      -0.00000017      -2.10502190
O        3.93202771       5.89804835      13.99545895       -2       0.26410306       0.00000250       0.00000085       0.00998438      -0.00000000       0.00000030      -0.00364495      -7.86405542     -11.79609670     -27.99091790      -5.74989546      -0.00000001      -0.00000005      -0.00000001      -2.08965992      -0.00000015       0.00000005      -0.00000017      -2.10502190
O        7.86405567       5.89804835      13.99545895       -2       0.26410308       0.00000263       0.00000086       0.00998437       0.00000001       0.00000030      -0.00364495     -15.72811134     -11.79609670     -27.99091790      -5.74989542       0.00000000      -0.00000007       0.00000000      -2.08965993      -0.00000015       0.00000002      -0.00000017      -2.10502191
O       11.79608364       5.89804835      13.99545895       -2       0.26410306       0.00000251       0.00000089       0.00998435      -0.00000000       0.00000030      -0.00364495     -23.59216728     -11.79609670     -27.99091790      -5.74989546      -0.00000000      -0.00000006      -0.00000000      -2.08965992      -0.00000015       0.00000003      -0.00000016      -2.10502190
O       15.72811161       9.83008078      13.99545895       -2       0.26410308       0.00000248       0.00000082       0.00998431      -0.00000001       0.00000030      -0.00364495     -31.45622322     -19.66016156     -27.99091790      -5.74989541       0.00000000      -0.00000004      -0.00000000      -2.08965993      -0.00000015       0.00000005      -0.00000017      -2.10502191
O        3.93202771       9.83008077      13.99545895       -2       0.26410306       0.00000261       0.00000083       0.00998438      -0.00000000       0.00000030      -0.00364495      -7.86405542     -19.66016154     -27.99091790      -5.74989545      -0.00000001      -0.00000006      -0.00000001      -2.08965992      -0.00000015       0.00000004      -0.00000017      -2.10502190
O        7.86405568       9.83008077      13.99545895       -2       0.26410308       0.00000253       0.00000088       0.00998435      -0.00000001       0.00000030      -0.00364495     -15.72811136     -19.66016154     -27.99091790      -5.74989542       0.00000000      -0.00000005       0.00000000      -2.08965993      -0.00000015       0.00000003      -0.00000017      -2.10502191
O       11.79608364       9.83008077      13.99545895       -2       0.26410306       0.00000262       0.00000087       0.00998437      -0.00000000       0.00000030      -0.00364495     -23.59216728     -19.66016154     -27.99091790      -5.74989546      -0.00000000      -0.00000006      -0.00000000      -2.08965992      -0.00000015       0.00000004      -0.00000016      -2.10502189
O       15.72811161      13.76211320      13.99545895       -2       0.26410306       0.00000253       0.00000081       0.00998433      -0.00000000       0.00000031      -0.00364495     -31.45622322     -27.52422640     -27.99091790      -5.74989545      -0.00000000      -0.00000005      -0.00000000      -2.08965992      -0.00000015       0.00000005      -0.00000016      -2.10502190
O        3.93202771      13.76211319      13.99545895       -2       0.26410309       0.00000267       0.00000084       0.00998435       0.00000000       0.00000030      -0.00364495      -7.86405542     -27.52422638     -27.99091790      -5.74989542      -0.00000001      -0.00000007      -0.00000001      -2.08965993      -0.00000015       0.00000002      -0.00000017      -2.10502191
O        7.86405568      13.76211319      13.99545895       -2       0.26410305       0.00000254       0.00000086       0.00998437      -0.00000000       0.00000030      -0.00364495     -15.72811136     -27.52422638     -27.99091790      -5.74989546      -0.00000000      -0.00000006       0.00000000      -2.08965992      -0.00000015       0.00000003      -0.00000017      -2.10502190
O       11.79608364      13.76211319      13.99545895       -2       0.26410308       0.00000263       0.00000088       0.00998434       0.00000001       0.00000030      -0.00364494     -23.59216728     -27.52422638     -27.99091790      -5.74989542      -0.00000000      -0.00000007       0.00000000      -2.08965993      -0.00000015       0.00000003      -0.00000016      -2.10502191
O        1.96601397       1.96601620       0.08648110       -2       0.21847174      -0.00000022      -0.00000037      -0.11358983       0.00000027       0.00000041      -0.28593911      -3.93202794      -3.93203240      -0.17296220      -2.03736039       0.00000000       0.00000029       0.00000000      -2.03736074       0.00000051       0.00000016       0.00000031      -5.31377740
O        5.89804193       1.96601620       0.08648110       -2       0.21847176      -0.00000019      -0.00000033      -0.11358988       0.00000027       0.00000041      -0.28593911     -11.79608386      -3.93203240      -0.17296220      -2.03736039       0.00000000       0.00000030       0.00000000      -2.03736075       0.00000052       0.00000017       0.00000031      -5.31377735
O        9.83006990       1.96601621       0.08648110       -2       0.21847176      -0.00000024      -0.00000038      -0.11358985       0.00000027       0.00000041      -0.28593911     -19.66013980      -3.93203242      -0.17296220      -2.03736039       0.00000000       0.00000029       0.00000000      -2.03736075       0.00000053       0.00000016       0.00000032      -5.31377734
O       13.76209786       1.96601621       0.08648110       -2       0.21847177      -0.00000019      -0.00000036      -0.11358993       0.00000027       0.00000041      -0.28593911     -27.52419572      -3.93203242      -0.17296220      -2.03736039       0.00000000       0.00000030      -0.00000000      -2.03736075       0.00000051       0.00000017       0.00000031      -5.31377735
O        1.96601397       5.89804862       0.08648110       -2       0.21847174      -0.00000018      -0.00000035      -0.11358988       0.00000027       0.00000041      -0.28593910      -3.93202794     -11.79609724      -0.17296220      -2.03736039       0.00000000       0.00000030       0.00000000      -2.03736074       0.00000051       0.00000017       0.00000031      -5.31377739
O        5.89804193       5.89804862       0.08648110       -2       0.21847175      -0.00000018      -0.00000034      -0.11358983       0.00000027       0.00000041      -0.28593911     -11.79608386     -11.79609724      -0.17296220      -2.03736039       0.00000000       0.00000031       0.00000000      -2.03736075       0.00000052       0.00000017       0.00000031      -5.31377735
O        9.83006990       5.89804863       0.08648110       -2       0.21847176      -0.00000020      -0.00000040      -0.11358992       0.00000027       0.00000041      -0.28593911     -19.66013980     -11.79609726      -0.17296220      -2.03736039       0.00000000       0.00000030       0.00000000      -2.03736075       0.00000053       0.00000017       0.00000032      -5.31377735
O       13.76209786       5.89804863       0.08648110       -2       0.21847175      -0.00000016      -0.00000036      -0.11358998       0.00000026       0.00000041      -0.28593912     -27.52419572     -11.79609726      -0.17296220      -2.03736037       0.00000000       0.00000028       0.00000000      -2.03736073       0.00000051       0.00000015       0.00000031      -5.31377736
O        1.96601397       9.83008104       0.08648110       -2       0.21847175      -0.00000016      -0.00000037      -0.11358982       0.00000026       0.00000041      -0.28593911      -3.93202794     -19.66016208      -0.17296220      -2.03736039       0.00000000       0.00000031       0.00000000      -2.03736075       0.00000051       0.00000017       0.00000031      -5.31377735
O        5.89804194       9.83008104       0.08648110       -2       0.21847176      -0.00000021      -0.00000034      -0.11358988       0.00000027       0.00000041      -0.28593911     -11.79608388     -19.66016208      -0.17296220      -2.03736039       0.00000000       0.00000030       0.00000000      -2.03736075       0.00000052       0.00000016       0.00000031      -5.31377734
O        9.83006990       9.83008105       0.08648110       -2       0.21847176      -0.00000017      -0.00000041      -0.11358989       0.00000027       0.00000042      -0.28593911     -19.66013980     -19.66016210      -0.17296220      -2.03736039       0.00000000       0.00000030       0.00000000      -2.03736075       0.00000053       0.00000017       0.00000032      -5.31377735
O       13.76209787       9.83008105       0.08648110       -2       0.21847175      -0.00000020      -0.00000036      -0.11359005       0.00000027       0.00000041      -0.28593912     -27.52419574     -19.66016210      -0.17296220      -2.03736037       0.00000000       0.00000029       0.00000000      -2.03736073       0.00000051       0.00000016       0.00000031      -5.31377737
O        1.96601398      13.76211346       0.08648110       -2       0.21847176      -0.00000023      -0.00000036      -0.11358982       0.00000027       0.00000041      -0.28593911      -3.93202796     -27.52422692      -0.17296220      -2.03736039       0.00000000       0.00000029       0.00000000      -2.03736075       0.00000051       0.00000016       0.00000031      -5.31377734
O        5.89804194      13.76211346       0.08648110       -2       0.21847177      -0.00000019      -0.00000035      -0.11358992       0.00000027       0.00000041      -0.28593911     -11.79608388     -27.52422692      -0.17296220      -2.03736039      -0.00000000       0.00000030      -0.00000000      -2.03736075       0.00000052       0.00000017       0.00000031      -5.31377735
O        9.83006991      13.76211347       0.08648110       -2       0.21847174      -0.00000022      -0.00000040      -0.11358997       0.00000027       0.00000041      -0.28593912     -19.66013982     -27.52422694      -0.17296220      -2.03736037       0.00000000       0.00000029       0.00000000      -2.03736073       0.00000053       0.00000016       0.00000032      -5.31377736
O       13.76209787      13.76211347       0.08648109       -2       0.21847175      -0.00000019      -0.00000036      -0.11358986       0.00000027       0.00000041      -0.28593911     -27.52419574     -27.52422694      -0.17296218      -2.03736039      -0.00000000       0.00000030      -0.00000000      -2.03736074       0.00000051       0.00000017       0.00000031      -5.31377740
O        1.96601396       1.96601620       4.06868995       -2       0.21847175      -0.00000017      -0.00000034      -0.11358985       0.00000027       0.00000041      -0.28593911      -3.93202792      -3.93203240      -8.13737990      -2.03736039       0.00000000       0.00000031       0.00000000      -2.03736074       0.00000052       0.00000017       0.00000031      -5.31377740
O        5.89804193       1.96601620       4.06868995       -2       0.21847176      -0.00000023      -0.00000034      -0.11358988       0.00000027       0.00000041      -0.28593910     -11.79608386      -3.93203240      -8.13737990      -2.03736039       0.00000000       0.00000030       0.00000000      -2.03736074       0.00000051       0.00000016       0.00000031      -5.31377739
O        9.83006989       1.96601621       4.06868995       -2       0.21847176      -0.00000014      -0.00000041      -0.11358990       0.00000026       0.00000042      -0.28593910     -19.66013978      -3.93203242      -8.13737990      -2.03736039       0.00000000       0.00000028       0.00000000      -2.03736074       0.00000053       0.00000015       0.00000032      -5.31377739
O       13.76209786       1.96601621       4.06868995       -2       0.21847174      -0.00000022      -0.00000036      -0.11359003       0.00000027       0.00000041      -0.28593911     -27.52419572      -3.93203242      -8.13737990      -2.03736037       0.00000000       0.00000029       0.00000000      -2.03736072       0.00000051       0.00000016       0.00000030      -5.31377740
O        1.96601397       5.89804862       4.06868995       -2       0.21847175      -0.00000020      -0.00000034      -0.11358986       0.00000027       0.00000041      -0.28593911      -3.93202794     -11.79609724      -8.13737990      -2.03736039       0.00000000       0.00000030       0.00000000      -2.03736074       0.00000052       0.00000016       0.00000031      -5.31377739
O        5.89804193       5.89804862       4.06868995       -2       0.21847175      -0.00000020      -0.00000034      -0.11358985       0.00000027       0.00000041      -0.28593911     -11.79608386     -11.79609724      -8.13737990      -2.03736039       0.00000000       0.00000030       0.00000000      -2.03736074       0.00000052       0.00000016       0.00000031      -5.31377739
O        9.83006990       5.89804863       4.06868995       -2       0.21847177      -0.00000019      -0.00000040      -0.11358988       0.00000027       0.00000041      -0.28593910     -19.66013980     -11.79609726      -8.13737990      -2.03736039       0.00000001       0.00000030       0.00000001      -2.03736074       0.00000053       0.00000016       0.00000032      -5.31377739
O       13.76209786       5.89804863       4.06868995       -2       0.21847174      -0.00000018      -0.00000036      -0.11358997       0.00000027       0.00000041      -0.28593912     -27.52419572     -11.79609726      -8.13737990      -2.03736037       0.00000000       0.00000030       0.00000000      -2.03736073       0.00000051       0.00000017       0.00000031      -5.31377737
O        1.96601397       9.83008104       4.06868995       -2       0.21847176      -0.00000022      -0.00000034      -0.11358987       0.00000027       0.00000041      -0.28593910      -3.93202794     -19.66016208      -8.13737990      -2.03736039      -0.00000000       0.00000029      -0.00000000      -2.03736074       0.00000052       0.00000016       0.00000031      -5.31377739
O        5.89804194       9.83008104       4.06868995       -2       0.21847176      -0.00000020      -0.00000035      -0.11358986       0.00000027       0.00000041      -0.28593910     -11.79608388     -19.66016208      -8.13737990      -2.03736039       0.00000000       0.00000029      -0.00000000      -2.03736074       0.00000052       0.00000016       0.00000031      -5.31377739
O        9.83006990       9.83008105       4.06868995       -2       0.21847174      -0.00000021      -0.00000039      -0.11359004       0.00000027       0.00000041      -0.28593911     -19.66013980     -19.66016210      -8.13737990      -2.03736037       0.00000000       0.00000029       0.00000000      -2.03736072       0.00000053       0.00000016       0.00000032      -5.31377741
O       13.76209787       9.83008105       4.06868994       -2       0.21847175      -0.00000021      -0.00000034      -0.11358979       0.00000027       0.00000041      -0.28593911     -27.52419574     -19.66016210      -8.13737988      -2.03736039       0.00000000       0.00000029       0.00000000      -2.03736074       0.00000052       0.00000016       0.00000031      -5.31377739
O        1.96601397      13.76211346       4.06868995       -2       0.21847175      -0.00000018      -0.00000034      -0.11358986       0.00000027       0.00000041      -0.28593910      -3.93202794     -27.52422692      -8.13737990      -2.03736039      -0.00000000       0.00000031       0.00000000      -2.03736074       0.00000052       0.00000017       0.00000031      -5.31377740
O        5.89804194      13.76211346       4.06868995       -2       0.21847174      -0.00000021      -0.00000033      -0.11358999       0.00000027       0.00000041      -0.28593911     -11.79608388     -27.52422692      -8.13737990      -2.03736037       0.00000000       0.00000030       0.00000000      -2.03736072       0.00000052       0.00000017       0.00000031      -5.31377740
O        9.83006990      13.76211347       4.06868995       -2       0.21847175      -0.00000017      -0.00000040      -0.11358999       0.00000027       0.00000041      -0.28593912     -19.66013980     -27.52422694      -8.13737990      -2.03736037       0.00000000       0.00000031       0.00000000      -2.03736073       0.00000053       0.00000017       0.00000032      -5.31377737
O       13.76209787      13.76211347       4.06868994       -2       0.21847175      -0.00000021      -0.00000034      -0.11358984       0.00000027       0.00000041      -0.28593911     -27.52419574     -27.52422694      -8.13737988      -2.03736039       0.00000000       0.00000029       0.00000000      -2.03736074       0.00000052       0.00000016       0.00000031      -5.31377739
O        1.96601396       1.96601620       8.05089880       -2       0.21847175      -0.00000018      -0.00000037      -0.11358988       0.00000027       0.00000041      -0.28593910      -3.93202792      -3.93203240     -16.10179760      -2.03736039       0.00000000       0.00000030       0.00000000      -2.03736074       0.00000054       0.00000016       0.00000032      -5.31377739
O        5.89804193       1.96601620       8.05089880       -2       0.21847176      -0.00000021      -0.00000034      -0.11358988       0.00000027       0.00000041      -0.28593910     -11.79608386      -3.93203240     -16.10179760      -2.03736039       0.00000000       0.00000030       0.00000000      -2.03736074       0.00000051       0.00000016       0.00000031      -5.31377739
O        9.83006989       1.96601620       8.05089880       -2       0.21847173      -0.00000017      -0.00000034      -0.11359000       0.00000027       0.00000041      -0.28593911     -19.66013978      -3.93203240     -16.10179760      -2.03736037       0.00000000       0.00000031       0.00000000      -2.03736072       0.00000052       0.00000017       0.00000031      -5.31377741
O       13.76209786       1.96601621       8.05089880       -2       0.21847176      -0.00000021      -0.00000041      -0.11358999       0.00000027       0.00000041      -0.28593912     -27.52419572      -3.93203242     -16.10179760      -2.03736037       0.00000000       0.00000029       0.00000000      -2.03736073       0.00000054       0.00000016       0.00000032      -5.31377736
O        1.96601397       5.89804862       8.05089880       -2       0.21847175      -0.00000023      -0.00000036      -0.11358984       0.00000027       0.00000041      -0.28593911      -3.93202794     -11.79609724     -16.10179760      -2.03736039       0.00000000       0.00000029       0.00000000      -2.03736074       0.00000051       0.00000016       0.00000030      -5.31377740
O        5.89804193       5.89804862       8.05089880       -2       0.21847176      -0.00000019      -0.00000035      -0.11358990       0.00000027       0.00000041      -0.28593910     -11.79608386     -11.79609724     -16.10179760      -2.03736038      -0.00000000       0.00000029       0.00000000      -2.03736074       0.00000052       0.00000016       0.00000031      -5.31377739
O        9.83006990       5.89804862       8.05089880       -2       0.21847173      -0.00000021      -0.00000034      -0.11359001       0.00000027       0.00000041      -0.28593911     -19.66013980     -11.79609724     -16.10179760      -2.03736037       0.00000000       0.00000029       0.00000000      -2.03736073       0.00000052       0.00000016       0.00000031      -5.31377741
O       13.76209786       5.89804863       8.05089879       -2       0.21847175      -0.00000021      -0.00000038      -0.11358986       0.00000027       0.00000041      -0.28593910     -27.52419572     -11.79609726     -16.10179758      -2.03736039       0.00000000       0.00000029       0.00000000      -2.03736074       0.00000051       0.00000016       0.00000030      -5.31377739
O        1.96601397       9.83008104       8.05089880       -2       0.21847176      -0.00000023      -0.00000038      -0.11358987       0.00000027       0.00000041      -0.28593910      -3.93202794     -19.66016208     -16.10179760      -2.03736039       0.00000000       0.00000030       0.00000000      -2.03736074       0.00000051       0.00000016       0.00000030      -5.31377739
O        5.89804193       9.83008104       8.05089880       -2       0.21847173      -0.00000015      -0.00000033      -0.11358999       0.00000027       0.00000041      -0.28593911     -11.79608386     -19.66016208     -16.10179760      -2.03736037       0.00000000       0.00000028       0.00000000      -2.03736072       0.00000052       0.00000015       0.00000031      -5.31377741
O        9.83006990       9.83008104       8.05089879       -2       0.21847176      -0.00000022      -0.00000033      -0.11358980       0.00000027       0.00000041      -0.28593911     -19.66013980     -19.66016208     -16.10179758      -2.03736039       0.00000000       0.00000029       0.00000000      -2.03736074       0.00000052       0.00000016       0.00000031      -5.31377739
O       13.76209786       9.83008105       8.05089879       -2       0.21847175      -0.00000016      -0.00000037      -0.11358983       0.00000026       0.00000041      -0.28593911     -27.52419572     -19.66016210     -16.10179758      -2.03736038       0.00000000       0.00000028       0.00000000      -2.03736074       0.00000051       0.00000015       0.00000030      -5.31377740
O        1.96601397      13.76211346       8.05089880       -2       0.21847175      -0.00000020      -0.00000035      -0.11358984       0.00000027       0.00000041      -0.28593910      -3.93202794     -27.52422692     -16.10179760      -2.03736039       0.00000000       0.00000030       0.00000000      -2.03736074       0.00000051       0.00000016       0.00000031      -5.31377740
O        5.89804194      13.76211346       8.05089880       -2       0.21847175      -0.00000020      -0.00000034      -0.11358999       0.00000027       0.00000041      -0.28593912     -11.79608388     -27.52422692     -16.10179760      -2.03736038       0.00000000       0.00000030       0.00000000      -2.03736073       0.00000052       0.00000016       0.00000031      -5.31377736
O        9.83006990      13.76211347       8.05089879       -2       0.21847175      -0.00000019      -0.00000040      -0.11358980       0.00000027       0.00000041      -0.28593911     -19.66013980     -27.52422694     -16.10179758      -2.03736039       0.00000000       0.00000030       0.00000000      -2.03736074       0.00000053       0.00000017       0.00000032      -5.31377739
O       13.76209787      13.76211347       8.05089879       -2       0.21847174      -0.00000020      -0.00000037      -0.11358984       0.00000027       0.00000041      -0.28593911     -27.52419574     -27.52422694     -16.10179758      -2.03736039       0.00000000       0.00000029       0.00000000      -2.03736074       0.00000051       0.00000016       0.00000030      -5.31377739
O        1.96601396       1.96601620      12.03310765       -2       0.21847176      -0.00000021      -0.00000040      -0.11358987       0.00000027       0.00000041      -0.28593910      -3.93202792      -3.93203240     -24.06621530      -2.03736038       0.00000000       0.00000029       0.00000000      -2.03736074       0.00000053       0.00000016       0.00000032      -5.31377739
O        5.89804193       1.96601620      12.03310765       -2       0.21847173      -0.00000021      -0.00000036      -0.11358996       0.00000027       0.00000041      -0.28593911     -11.79608386      -3.93203240     -24.06621530      -2.03736037      -0.00000000       0.00000029       0.00000000      -2.03736072       0.00000051       0.00000016       0.00000031      -5.31377740
O        9.83006989       1.96601620      12.03310765       -2       0.21847175      -0.00000020      -0.00000034      -0.11358998       0.00000027       0.00000041      -0.28593912     -19.66013978      -3.93203240     -24.06621530      -2.03736037       0.00000000       0.00000029      -0.00000000      -2.03736073       0.00000052       0.00000016       0.00000031      -5.31377735
O       13.76209786       1.96601621      12.03310764       -2       0.21847175      -0.00000022      -0.00000042      -0.11358977       0.00000027       0.00000041      -0.28593911     -27.52419572      -3.93203242     -24.06621528      -2.03736039       0.00000000       0.00000029       0.00000000      -2.03736074       0.00000053       0.00000016       0.00000032      -5.31377738
O        1.96601396       5.89804862      12.03310765       -2       0.21847175      -0.00000016      -0.00000040      -0.11358986       0.00000027       0.00000042      -0.28593910      -3.93202792     -11.79609724     -24.06621530      -2.03736039       0.00000000       0.00000028       0.00000000      -2.03736074       0.00000055       0.00000015       0.00000032      -5.31377740
O        5.89804193       5.89804862      12.03310765       -2       0.21847174      -0.00000022      -0.00000033      -0.11358999       0.00000027       0.00000041      -0.28593911     -11.79608386     -11.79609724     -24.06621530      -2.03736037       0.00000000       0.00000029       0.00000000      -2.03736072       0.00000052       0.00000016       0.00000031      -5.31377740
O        9.83006989       5.89804862      12.03310764       -2       0.21847174      -0.00000016      -0.00000034      -0.11358978       0.00000027       0.00000041      -0.28593911     -19.66013978     -11.79609724     -24.06621528      -2.03736039       0.00000000       0.00000028       0.00000000      -2.03736074       0.00000052       0.00000015       0.00000031      -5.31377738
O       13.76209786       5.89804863      12.03310764       -2       0.21847175      -0.00000023      -0.00000039      -0.11358979       0.00000027       0.00000041      -0.28593911     -27.52419572     -11.79609726     -24.06621528      -2.03736039       0.00000000       0.00000029       0.00000000      -2.03736074       0.00000054       0.00000016       0.00000033      -5.31377738
O        1.96601397       9.83008104      12.03310765       -2       0.21847174      -0.00000021      -0.00000039      -0.11358998       0.00000027       0.00000041      -0.28593911      -3.93202794     -19.66016208     -24.06621530      -2.03736037       0.00000000       0.00000030       0.00000000      -2.03736072       0.00000054       0.00000016       0.00000032      -5.31377740
O        5.89804193       9.83008104      12.03310765       -2       0.21847174      -0.00000018      -0.00000034      -0.11358996       0.00000027       0.00000041      -0.28593912     -11.79608386     -19.66016208     -24.06621530      -2.03736037       0.00000000       0.00000031       0.00000000      -2.03736073       0.00000052       0.00000017       0.00000031      -5.31377736
O        9.83006990       9.83008104      12.03310764       -2       0.21847175      -0.00000021      -0.00000034      -0.11358980       0.00000027       0.00000041      -0.28593911     -19.66013980     -19.66016208     -24.06621528      -2.03736039       0.00000000       0.00000030       0.00000000      -2.03736074       0.00000052       0.00000016       0.00000031      -5.31377738
O       13.76209786       9.83008105      12.03310764       -2       0.21847174      -0.00000018      -0.00000040      -0.11358980       0.00000027       0.00000041      -0.28593911     -27.52419572     -19.66016210     -24.06621528      -2.03736038       0.00000000       0.00000030       0.00000000      -2.03736074       0.00000054       0.00000017       0.00000033      -5.31377739
O        1.96601397      13.76211346      12.03310765       -2       0.21847173      -0.00000021      -0.00000038      -0.11359003       0.00000027       0.00000041      -0.28593911      -3.93202794     -27.52422692     -24.06621530      -2.03736037       0.00000000       0.00000030       0.00000000      -2.03736072       0.00000054       0.00000016       0.00000032      -5.31377741
O        5.89804194      13.76211346      12.03310764       -2       0.21847174      -0.00000021      -0.00000034      -0.11358976       0.00000027       0.00000041      -0.28593911     -11.79608388     -27.52422692     -24.06621528      -2.03736039       0.00000000       0.00000029       0.00000000      -2.03736074       0.00000052       0.00000016       0.00000031      -5.31377738
O        9.83006990      13.76211346      12.03310764       -2       0.21847175      -0.00000021      -0.00000034      -0.11358982       0.00000027       0.00000041      -0.28593911     -19.66013980     -27.52422692     -24.06621528      -2.03736038      -0.00000000       0.00000029       0.00000000      -2.03736074       0.00000052       0.00000016       0.00000031      -5.31377739
O       13.76209787      13.76211347      12.03310764       -2       0.21847175      -0.00000021      -0.00000040      -0.11358983       0.00000027       0.00000041      -0.28593911     -27.52419574     -27.52422694     -24.06621528      -2.03736039       0.00000000       0.00000029       0.00000000      -2.03736074       0.00000054       0.00000016       0.00000033      -5.31377739
Ti       1.96601377       1.96601586       1.93982197        4      -1.46707614       0.00000354       0.00000546       0.10129296      -0.00000007      -0.00000015      -0.13828587       7.86405508       7.86406344       7.75928788       7.03337515       0.00000000      -0.00000036      -0.00000000       7.03337228      -0.00000066      -0.00000021      -0.00000045       6.67888202
Ti       5.89804173       1.96601586       1.93982197        4      -1.46707617       0.00000371       0.00000546       0.10129289      -0.00000007      -0.00000015      -0.13828587      23.59216692       7.86406344       7.75928788       7.03337518      -0.00000000      -0.00000036      -0.00000000       7.03337227      -0.00000065      -0.00000022      -0.00000044       6.67888201
Ti       9.83006970       1.96601586       1.93982197        4      -1.46707615       0.00000352       0.00000548       0.10129290      -0.00000007      -0.00000016      -0.13828587      39.32027880       7.86406344       7.75928788       7.03337516       0.00000001      -0.00000037       0.00000001       7.03337229      -0.00000067      -0.00000023      -0.00000045       6.67888202
Ti      13.76209766       1.96601587       1.93982197        4      -1.46707617       0.00000369       0.00000548       0.10129278      -0.00000007      -0.00000015      -0.13828586      55.04839064       7.86406348       7.75928788       7.03337520      -0.00000000      -0.00000036      -0.00000000       7.03337227      -0.00000066      -0.00000022      -0.00000045       6.67888199
Ti       1.96601377       5.89804828       1.93982197        4      -1.46707616       0.00000362       0.00000549       0.10129295      -0.00000007      -0.00000015      -0.13828587       7.86405508      23.59219312       7.75928788       7.03337518       0.00000001      -0.00000036       0.00000001       7.03337226      -0.00000067      -0.00000022      -0.00000045       6.67888201
Ti       5.89804173       5.89804828       1.93982197        4      -1.46707615       0.00000369       0.00000543       0.10129290      -0.00000008      -0.00000015      -0.13828587      23.59216692      23.59219312       7.75928788       7.03337515      -0.00000000      -0.00000037       0.00000000       7.03337228      -0.00000066      -0.00000022      -0.00000045       6.67888202
Ti       9.83006970       5.89804828       1.93982197        4      -1.46707617       0.00000362       0.00000550       0.10129292      -0.00000007      -0.00000016      -0.13828587      39.32027880      23.59219312       7.75928788       7.03337519       0.00000002      -0.00000037       0.00000002       7.03337226      -0.00000068      -0.00000023      -0.00000046       6.67888200
Ti      13.76209767       5.89804829       1.93982196        4      -1.46707615       0.00000352       0.00000544       0.10129298      -0.00000007      -0.00000015      -0.13828588      55.04839068      23.59219316       7.75928784       7.03337513      -0.00000000      -0.00000034       0.00000000       7.03337226      -0.00000066      -0.00000020      -0.00000045       6.67888198
Ti       1.96601377       9.83008070       1.93982197        4      -1.46707615       0.00000367       0.00000544       0.10129291      -0.00000008      -0.00000015      -0.13828587       7.86405508      39.32032280       7.75928788       7.03337515      -0.00000000      -0.00000037       0.00000000       7.03337228      -0.00000067      -0.00000022      -0.00000045       6.67888202
Ti       5.89804174       9.83008070       1.93982197        4      -1.46707616       0.00000355       0.00000548       0.10129289      -0.00000007      -0.00000015      -0.13828587      23.59216696      39.32032280       7.75928788       7.03337519       0.00000001      -0.00000037       0.00000001       7.03337226      -0.00000067      -0.00000023      -0.00000045       6.67888201
Ti       9.83006970       9.83008070       1.93982197        4      -1.46707615       0.00000368       0.00000546       0.10129284      -0.00000008      -0.00000016      -0.13828587      39.32027880      39.32032280       7.75928788       7.03337516       0.00000001      -0.00000037       0.00000001       7.03337229      -0.00000069      -0.00000022      -0.00000048       6.67888201
Ti      13.76209767       9.83008071       1.93982196        4      -1.46707617       0.00000355       0.00000548       0.10129302      -0.00000007      -0.00000015      -0.13828588      55.04839068      39.32032284       7.75928784       7.03337516       0.00000001      -0.00000036       0.00000001       7.03337223      -0.00000067      -0.00000022      -0.00000045       6.67888202
Ti       1.96601378      13.76211312       1.93982197        4      -1.46707614       0.00000354       0.00000544       0.10129290      -0.00000007      -0.00000015      -0.13828587       7.86405512      55.04845248       7.75928788       7.03337516      -0.00000000      -0.00000037      -0.00000000       7.03337228      -0.00000067      -0.00000022      -0.00000045       6.67888202
Ti       5.89804174      13.76211312       1.93982197        4      -1.46707616       0.00000370       0.00000546       0.10129280      -0.00000007      -0.00000015      -0.13828587      23.59216696      55.04845248       7.75928788       7.03337520       0.00000000      -0.00000036      -0.00000000       7.03337227      -0.00000068      -0.00000021      -0.00000046       6.67888200
Ti       9.83006971      13.76211312       1.93982196        4      -1.46707615       0.00000352       0.00000548       0.10129303      -0.00000007      -0.00000016      -0.13828588      39.32027884      55.04845248       7.75928784       7.03337513       0.00000001      -0.00000036       0.00000001       7.03337226      -0.00000068      -0.00000021      -0.00000046       6.67888198
Ti      13.76209767      13.76211313       1.93982196        4      -1.46707616       0.00000368       0.00000543       0.10129294      -0.00000007      -0.00000015      -0.13828587      55.04839068      55.04845252       7.75928784       7.03337518       0.00000000      -0.00000036       0.00000000       7.03337226      -0.00000067      -0.00000022      -0.00000045       6.67888201
Ti       1.96601376       1.96601586       5.92203082        4      -1.46707615       0.00000365       0.00000543       0.10129295      -0.00000008      -0.00000015      -0.13828587       7.86405504       7.86406344      23.68812328       7.03337515      -0.00000000      -0.00000037      -0.00000000       7.03337228      -0.00000066      -0.00000022      -0.00000045       6.67888202
Ti       5.89804173       1.96601586       5.92203082        4      -1.46707617       0.00000364       0.00000547       0.10129292      -0.00000007      -0.00000015      -0.13828587      23.59216692       7.86406344      23.68812328       7.03337519       0.00000000      -0.00000037      -0.00000000       7.03337227      -0.00000065      -0.00000023      -0.00000044       6.67888200
Ti       9.83006970       1.96601586       5.92203082        4      -1.46707615       0.00000351       0.00000544       0.10129284      -0.00000007      -0.00000015      -0.13828587      39.32027880       7.86406344      23.68812328       7.03337516       0.00000001      -0.00000034       0.00000001       7.03337229      -0.00000068      -0.00000020      -0.00000047       6.67888201
Ti      13.76209766       1.96601587       5.92203081        4      -1.46707617       0.00000365       0.00000547       0.10129304      -0.00000007      -0.00000015      -0.13828587      55.04839064       7.86406348      23.68812324       7.03337515       0.00000000      -0.00000036      -0.00000000       7.03337228      -0.00000066      -0.00000021      -0.00000044       6.67888195
Ti       1.96601377       5.89804828       5.92203082        4      -1.46707616       0.00000354       0.00000547       0.10129293      -0.00000007      -0.00000015      -0.13828587       7.86405508      23.59219312      23.68812328       7.03337519       0.00000001      -0.00000036       0.00000001       7.03337226      -0.00000066      -0.00000022      -0.00000045       6.67888201
Ti       5.89804173       5.89804828       5.92203082        4      -1.46707615       0.00000367       0.00000543       0.10129295      -0.00000008      -0.00000015      -0.13828587      23.59216692      23.59219312      23.68812328       7.03337516      -0.00000000      -0.00000038       0.00000000       7.03337228      -0.00000067      -0.00000024      -0.00000045       6.67888202
Ti       9.83006970       5.89804828       5.92203082        4      -1.46707616       0.00000355       0.00000550       0.10129281      -0.00000007      -0.00000015      -0.13828587      39.32027880      23.59219312      23.68812328       7.03337520       0.00000003      -0.00000036       0.00000002       7.03337227      -0.00000068      -0.00000022      -0.00000047       6.67888199
Ti      13.76209766       5.89804829       5.92203081        4      -1.46707615       0.00000369       0.00000543       0.10129306      -0.00000008      -0.00000015      -0.13828588      55.04839064      23.59219316      23.68812324       7.03337514      -0.00000000      -0.00000037       0.00000000       7.03337222      -0.00000066      -0.00000022      -0.00000044       6.67888205
Ti       1.96601377       9.83008070       5.92203082        4      -1.46707617       0.00000370       0.00000546       0.10129291      -0.00000007      -0.00000015      -0.13828587       7.86405508      39.32032280      23.68812328       7.03337519       0.00000000      -0.00000037      -0.00000000       7.03337226      -0.00000067      -0.00000023      -0.00000045       6.67888200
Ti       5.89804174       9.83008070       5.92203082        4      -1.46707614       0.00000353       0.00000545       0.10129286      -0.00000007      -0.00000015      -0.13828587      23.59216696      39.32032280      23.68812328       7.03337516      -0.00000000      -0.00000036      -0.00000000       7.03337228      -0.00000068      -0.00000021      -0.00000046       6.67888201
Ti       9.83006970       9.83008070       5.92203081        4      -1.46707618       0.00000372       0.00000548       0.10129309      -0.00000007      -0.00000015      -0.13828588      39.32027880      39.32032280      23.68812324       7.03337516       0.00000001      -0.00000036       0.00000001       7.03337223      -0.00000069      -0.00000022      -0.00000047       6.67888202
Ti      13.76209767       9.83008071       5.92203081        4      -1.46707615       0.00000351       0.00000544       0.10129296      -0.00000007      -0.00000015      -0.13828587      55.04839068      39.32032284      23.68812324       7.03337515      -0.00000000      -0.00000036      -0.00000000       7.03337228      -0.00000066      -0.00000021      -0.00000045       6.67888202
Ti       1.96601377      13.76211312       5.92203082        4      -1.46707615       0.00000368       0.00000544       0.10129291      -0.00000008      -0.00000015      -0.13828587       7.86405508      55.04845248      23.68812328       7.03337515      -0.00000000      -0.00000038       0.00000000       7.03337228      -0.00000066      -0.00000024      -0.00000045       6.67888202
Ti       5.89804174      13.76211312       5.92203081        4      -1.46707615       0.00000356       0.00000547       0.10129306      -0.00000007      -0.00000015      -0.13828588      23.59216696      55.04845248      23.68812324       7.03337517       0.00000001      -0.00000036       0.00000001       7.03337224      -0.00000067      -0.00000022      -0.00000045       6.67888197
Ti       9.83006970      13.76211312       5.92203081        4      -1.46707616       0.00000365       0.00000547       0.10129303      -0.00000008      -0.00000016      -0.13828588      39.32027880      55.04845248      23.68812324       7.03337512       0.00000001      -0.00000037       0.00000001       7.03337225      -0.00000068      -0.00000022      -0.00000046       6.67888204
Ti      13.76209767      13.76211313       5.92203081        4      -1.46707615       0.00000354       0.00000546       0.10129293      -0.00000007      -0.00000015      -0.13828587      55.04839068      55.04845252      23.68812324       7.03337518       0.00000001      -0.00000036       0.00000001       7.03337226      -0.00000066      -0.00000022      -0.00000045       6.67888200
Ti       1.96601376       1.96601585       9.90423967        4      -1.46707616       0.00000365       0.00000561       0.10129294      -0.00000008      -0.00000016      -0.13828587       7.86405504       7.86406340      39.61695868       7.03337513      -0.00000000      -0.00000037      -0.00000000       7.03337233      -0.00000068      -0.00000022      -0.00000046       6.67888200
Ti       5.89804173       1.96601586       9.90423967        4      -1.46707616       0.00000356       0.00000546       0.10129285      -0.00000007      -0.00000015      -0.13828587      23.59216692       7.86406344      39.61695868       7.03337519       0.00000000      -0.00000037      -0.00000000       7.03337227      -0.00000065      -0.00000023      -0.00000044       6.67888200
Ti       9.83006969       1.96601586       9.90423966        4      -1.46707615       0.00000367       0.00000543       0.10129308      -0.00000008      -0.00000015      -0.13828588      39.32027876       7.86406344      39.61695864       7.03337513       0.00000000      -0.00000037       0.00000000       7.03337226      -0.00000067      -0.00000022      -0.00000045       6.67888198
Ti      13.76209766       1.96601586       9.90423966        4      -1.46707617       0.00000358       0.00000561       0.10129300      -0.00000007      -0.00000016      -0.13828588      55.04839064       7.86406344      39.61695864       7.03337516       0.00000001      -0.00000036       0.00000001       7.03337223      -0.00000068      -0.00000022      -0.00000046       6.67888202
Ti       1.96601377       5.89804828       9.90423967        4      -1.46707615       0.00000351       0.00000538       0.10129292      -0.00000007      -0.00000015      -0.13828587       7.86405508      23.59219312      39.61695868       7.03337516      -0.00000000      -0.00000037      -0.00000000       7.03337228      -0.00000065      -0.00000023      -0.00000043       6.67888202
Ti       5.89804173       5.89804828       9.90423967        4      -1.46707617       0.00000370       0.00000546       0.10129284      -0.00000007      -0.00000015      -0.13828587      23.59216692      23.59219312      39.61695868       7.03337520      -0.00000000      -0.00000036       0.00000000       7.03337227      -0.00000068      -0.00000022      -0.00000046       6.67888200
Ti       9.83006970       5.89804828       9.90423966        4      -1.46707615       0.00000353       0.00000546       0.10129311      -0.00000007      -0.00000015      -0.13828588      39.32027880      23.59219312      39.61695864       7.03337512       0.00000001      -0.00000036       0.00000001       7.03337225      -0.00000066      -0.00000021      -0.00000045       6.67888203
Ti      13.76209766       5.89804829       9.90423966        4      -1.46707617       0.00000371       0.00000538       0.10129293      -0.00000007      -0.00000015      -0.13828587      55.04839064      23.59219316      39.61695864       7.03337518      -0.00000000      -0.00000036      -0.00000000       7.03337226      -0.00000065      -0.00000022      -0.00000043       6.67888201
Ti       1.96601377       9.83008070       9.90423967        4      -1.46707616       0.00000370       0.00000548       0.10129286      -0.00000007      -0.00000014      -0.13828587       7.86405508      39.32032280      39.61695868       7.03337519       0.00000001      -0.00000037       0.00000001       7.03337227      -0.00000066      -0.00000023      -0.00000044       6.67888200
Ti       5.89804174       9.83008070       9.90423966        4      -1.46707614       0.00000352       0.00000544       0.10129305      -0.00000007      -0.00000015      -0.13828588      23.59216696      39.32032280      39.61695864       7.03337513       0.00000000      -0.00000034       0.00000000       7.03337226      -0.00000067      -0.00000020      -0.00000045       6.67888198
Ti       9.83006970       9.83008070       9.90423966        4      -1.46707616       0.00000371       0.00000547       0.10129294      -0.00000007      -0.00000015      -0.13828587      39.32027880      39.32032280      39.61695864       7.03337518       0.00000003      -0.00000036       0.00000002       7.03337226      -0.00000067      -0.00000022      -0.00000045       6.67888200
Ti      13.76209767       9.83008071       9.90423966        4      -1.46707615       0.00000350       0.00000542       0.10129293      -0.00000007      -0.00000014      -0.13828587      55.04839068      39.32032284      39.61695864       7.03337515      -0.00000000      -0.00000034      -0.00000000       7.03337228      -0.00000065      -0.00000020      -0.00000043       6.67888202
Ti       1.96601377      13.76211312       9.90423967        4      -1.46707613       0.00000370       0.00000539       0.10129286      -0.00000008      -0.00000015      -0.13828587       7.86405508      55.04845248      39.61695868       7.03337517      -0.00000000      -0.00000038       0.00000000       7.03337226      -0.00000066      -0.00000023      -0.00000044       6.67888203
Ti       5.89804174      13.76211312       9.90423966        4      -1.46707617       0.00000356       0.00000546       0.10129303      -0.00000007      -0.00000015      -0.13828588      23.59216696      55.04845248      39.61695864       7.03337516       0.00000001      -0.00000036       0.00000001       7.03337223      -0.00000067      -0.00000022      -0.00000045       6.67888202
Ti       9.83006970      13.76211312       9.90423966        4      -1.46707615       0.00000365       0.00000548       0.10129298      -0.00000008      -0.00000015      -0.13828587      39.32027880      55.04845248      39.61695864       7.03337515       0.00000001      -0.00000037       0.00000001       7.03337228      -0.00000068      -0.00000022      -0.00000047       6.67888202
Ti      13.76209767      13.76211313       9.90423966        4      -1.46707614       0.00000353       0.00000541       0.10129297      -0.00000007      -0.00000015      -0.13828587      55.04839068      55.04845252      39.61695864       7.03337519       0.00000001      -0.00000036       0.00000001       7.03337226      -0.00000065      -0.00000022      -0.00000043       6.67888200
Ti       1.96601376       1.96601585      13.88644852        4      -1.46707617       0.00000369       0.00000547       0.10129287      -0.00000007      -0.00000016      -0.13828587       7.86405504       7.86406340      55.54579408       7.03337519      -0.00000000      -0.00000037      -0.00000000       7.03337227      -0.00000067      -0.00000023      -0.00000045       6.67888200
Ti       5.89804173       1.96601586      13.88644851        4      -1.46707614       0.00000353       0.00000547       0.10129312      -0.00000007      -0.00000015      -0.13828588      23.59216692       7.86406344      55.54579404       7.03337513       0.00000000      -0.00000036      -0.00000000       7.03337226      -0.00000066      -0.00000021      -0.00000045       6.67888198
Ti       9.83006969       1.96601586      13.88644851        4      -1.46707616       0.00000369       0.00000546       0.10129302      -0.00000007      -0.00000015      -0.13828588      39.32027876       7.86406344      55.54579404       7.03337517      -0.00000000      -0.00000036      -0.00000000       7.03337225      -0.00000066      -0.00000022      -0.00000045       6.67888197
Ti      13.76209766       1.96601586      13.88644851        4      -1.46707614       0.00000353       0.00000547       0.10129299      -0.00000007      -0.00000016      -0.13828587      55.04839064       7.86406344      55.54579404       7.03337516       0.00000001      -0.00000036       0.00000001       7.03337229      -0.00000068      -0.00000021      -0.00000047       6.67888197
Ti       1.96601377       5.89804827      13.88644852        4      -1.46707615       0.00000353       0.00000549       0.10129291      -0.00000007      -0.00000016      -0.13828587       7.86405508      23.59219308      55.54579408       7.03337516      -0.00000000      -0.00000035       0.00000000       7.03337229      -0.00000069      -0.00000021      -0.00000048       6.67888202
Ti       5.89804173       5.89804828      13.88644851        4      -1.46707616       0.00000367       0.00000546       0.10129308      -0.00000007      -0.00000015      -0.13828588      23.59216692      23.59219312      55.54579404       7.03337517       0.00000001      -0.00000037       0.00000001       7.03337225      -0.00000067      -0.00000022      -0.00000045       6.67888197
Ti       9.83006970       5.89804828      13.88644851        4      -1.46707613       0.00000351       0.00000546       0.10129298      -0.00000007      -0.00000015      -0.13828587      39.32027880      23.59219312      55.54579404       7.03337516      -0.00000000      -0.00000034      -0.00000000       7.03337229      -0.00000066      -0.00000019      -0.00000045       6.67888197
Ti      13.76209766       5.89804828      13.88644851        4      -1.46707615       0.00000368       0.00000547       0.10129290      -0.00000007      -0.00000016      -0.13828587      55.04839064      23.59219312      55.54579404       7.03337519       0.00000003      -0.00000036       0.00000002       7.03337227      -0.00000068      -0.00000022      -0.00000047       6.67888195
Ti       1.96601377       9.83008069      13.88644851        4      -1.46707616       0.00000355       0.00000550       0.10129309      -0.00000007      -0.00000016      -0.13828588       7.86405508      39.32032276      55.54579404       7.03337516       0.00000001      -0.00000038       0.00000001       7.03337225      -0.00000068      -0.00000023      -0.00000046       6.67888197
Ti       5.89804173       9.83008070      13.88644851        4      -1.46707615       0.00000367       0.00000544       0.10129305      -0.00000008      -0.00000015      -0.13828588      23.59216692      39.32032280      55.54579404       7.03337513      -0.00000000      -0.00000037       0.00000000       7.03337226      -0.00000067      -0.00000022      -0.00000045       6.67888198
Ti       9.83006970       9.83008070      13.88644851        4      -1.46707615       0.00000353       0.00000547       0.10129297      -0.00000007      -0.00000016      -0.13828587      39.32027880      39.32032280      55.54579404       7.03337520       0.00000001      -0.00000036       0.00000001       7.03337227      -0.00000066      -0.00000022      -0.00000045       6.67888195
Ti      13.76209766       9.83008070      13.88644851        4      -1.46707613       0.00000369       0.00000547       0.10129292      -0.00000008      -0.00000016      -0.13828587      55.04839064      39.32032280      55.54579404       7.03337516       0.00000001      -0.00000037       0.00000001       7.03337229      -0.00000068      -0.00000022      -0.00000047       6.67888197
Ti       1.96601377      13.76211311      13.88644851        4      -1.46707616       0.00000368       0.00000550       0.10129310      -0.00000007      -0.00000016      -0.13828588       7.86405508      55.04845244      55.54579404       7.03337516      -0.00000000      -0.00000037       0.00000000       7.03337225      -0.00000068      -0.00000023      -0.00000047       6.67888197
Ti       5.89804174      13.76211312      13.88644851        4      -1.46707613       0.00000351       0.00000546       0.10129301      -0.00000007      -0.00000015      -0.13828587      23.59216696      55.04845248      55.54579404       7.03337516      -0.00000000      -0.00000036      -0.00000000       7.03337229      -0.00000067      -0.00000021      -0.00000045       6.67888197
Ti       9.83006970      13.76211312      13.88644851        4      -1.46707615       0.00000370       0.00000547       0.10129290      -0.00000007      -0.00000015      -0.13828587      39.32027880      55.04845248      55.54579404       7.03337519      -0.00000000      -0.00000036      -0.00000000       7.03337227      -0.00000066      -0.00000022      -0.00000045       6.67888195
Ti      13.76209767      13.76211312      13.88644851        4      -1.46707615       0.00000354       0.00000549       0.10129299      -0.00000007      -0.00000016      -0.13828587      55.04839068      55.04845248      55.54579404       7.03337515       0.00000001      -0.00000036       0.00000001       7.03337228      -0.00000068      -0.00000021      -0.00000047       6.67888202
