5
Lattice="3.932030192500001 0.0 0.0 0.0 3.932030192500001 0.0 0.0 0.0 3.98220885000001" Properties=species:S:1:pos:R:3:oxn:I:1:REF_node_energy:R:1:REF_forces:R:3:REF_atomic_dipoles:R:3:REF_atomic-oxn-dipole:R:3:REF_BEC:R:9 REF_energy=-3701.8842689237604 REF_stress="_JSON [[-0.03578158706354763, -3.698751564405604e-18, -5.92634182643511e-11], [-3.698751564405604e-18, -0.03578158706354766, -5.92634124702773e-11], [-5.92634182643511e-11, -5.92634124702773e-11, -0.035093769222915495]]" REF_displacement="_JSON [[0.0, 0.0, 0.0], [0.0, 0.0, 0.0], [0.0, 0.0, 0.0]]" REF_dipole="1.0898847158102853e-08 1.0898847158102853e-08 -1.052758748356041" REF_piezoelectric="_JSON [[[-1.0815561053258401e-09, 1.316677400292702e-10, -0.0066409840715015815], [1.316677400292702e-10, 1.3403718100956953e-10, 1.198311042092219e-17], [-0.0066409840715015815, 1.198311042092219e-17, 1.3754350880107071e-10]], [[1.340371636343281e-10, 1.316677202206936e-10, 3.5309688676415894e-17], [1.316677202206936e-10, -1.0815560187705242e-09, -0.006640984071501607], [3.5309688676415894e-17, -0.006640984071501607, 1.3754352133251594e-10]], [[0.0023941929558203285, 1.0771392265663654e-17, 1.1881073527423342e-10], [1.0771392265663654e-17, 0.002394192955820345, 1.1881073711862469e-10], [1.1881073527423342e-10, 1.1881073711862469e-10, 0.056119439350690956]]]" pbc="T T T"
Ba       0.00000000       0.00000000       0.00466759        2       0.61787901       0.00000002       0.00000002      -0.00776957      -0.00000000      -0.00000000      -0.02163408       0.00000000       0.00000000       0.00933518       2.84354611      -0.00000000      -0.00000000      -0.00000000       2.84354611      -0.00000000      -0.00000000      -0.00000000       2.84494644
O        1.96601510       0.00000000       2.04881606       -2       0.26410370      -0.00000002       0.00000003       0.01007671       0.00000000       0.00000001      -0.00365348      -3.93203020       0.00000000      -4.09763212      -2.08966241      -0.00000000       0.00000000       0.00000000      -5.74990572      -0.00000000       0.00000000      -0.00000000      -2.10502278
O        0.00000000       1.96601510       2.04881606       -2       0.26410370       0.00000003      -0.00000002       0.01007671       0.00000001       0.00000000      -0.00365348       0.00000000      -3.93203020      -4.09763212      -5.74990572       0.00000000      -0.00000000      -0.00000000      -2.08966241       0.00000000      -0.00000000       0.00000000      -2.10502278
O        1.96601510       1.96601510       0.08648110       -2       0.21847514      -0.00000002      -0.00000002      -0.11365834       0.00000000       0.00000000      -0.28593176      -3.93203020      -3.93203020      -0.17296220      -2.03736170       0.00000000      -0.00000000       0.00000000      -2.03736170      -0.00000000      -0.00000000      -0.00000000      -5.31377488
Ti       1.96601510       1.96601510       1.93982197        4      -1.46707828      -0.00000001      -0.00000001       0.10127449       0.00000000       0.00000000      -0.13828257       7.86406040       7.86406040       7.75928788       7.03338372       0.00000000       0.00000001       0.00000000       7.03338372       0.00000001       0.00000001       0.00000001       6.67887400
