135
Lattice="11.796090577500003 0.0 0.0 0.0 11.796090577500003 0.0 0.0 0.0 11.94662655000003" Properties=species:S:1:pos:R:3:oxn:I:1:REF_node_energy:R:1:REF_forces:R:3:REF_atomic_dipoles:R:3:REF_atomic-oxn-dipole:R:3:REF_BEC:R:9 REF_energy=-99950.87526094152 REF_stress="_JSON [[-0.035781587063547546, 7.784220861877264e-18, -5.926339526326436e-11], [7.784220861877264e-18, -0.03578158706354753, -5.926339432428383e-11], [-5.926339526326436e-11, -5.926339432428383e-11, -0.035093769222915246]]" REF_displacement="_JSON [[0.0, 0.0, 0.0], [0.0, 0.0, 0.0], [0.0, 0.0, 0.0]]" REF_dipole="2.9426965397760796e-07 2.9426915659769293e-07 -28.42448620561332" REF_piezoelectric="_JSON [[[-1.0815572722197294e-09, 1.3166739127605493e-10, -0.006640984071501612], [1.3166739127605493e-10, 1.340367429822944e-10, -7.998930962987996e-18], [-0.006640984071501612, -7.998930962987996e-18, 1.3754303459316375e-10]], [[1.340370519804503e-10, 1.3166735289223877e-10, -6.038845380972529e-18], [1.3166735289223877e-10, -1.0815566054232214e-09, -0.006640984071501441], [-6.038845380972529e-18, -0.006640984071501441, 1.3754333841666548e-10]], [[0.0023941929558205554, -6.4768167841348095e-18, 1.188104457176503e-10], [-6.4768167841348095e-18, 0.0023941929558205363, 1.1881064496151538e-10], [1.188104457176503e-10, 1.1881064496151538e-10, 0.05611943935069139]]]" pbc="T T T"
Ba       0.00000000       0.00000000       0.00466759        2       0.61787901       0.00000004       0.00000004      -0.00776957      -0.00000000      -0.00000000      -0.02163408       0.00000000       0.00000000       0.00933518       2.84354612      -0.00000000      -0.00000000      -0.00000000       2.84354612      -0.00000000      -0.00000000      -0.00000000       2.84494645
Ba       0.00000000       0.00000000       3.98687644        2       0.61787901       0.00000004       0.00000004      -0.00776957      -0.00000000      -0.00000000      -0.02163408       0.00000000       0.00000000       7.97375288       2.84354612       0.00000000      -0.00000000       0.00000000       2.84354612      -0.00000000      -0.00000000      -0.00000000       2.84494645
Ba       0.00000000       0.00000000       7.96908529        2       0.61787901       0.00000004       0.00000004      -0.00776957      -0.00000000      -0.00000000      -0.02163408       0.00000000       0.00000000      15.93817058       2.84354612       0.00000000      -0.00000000       0.00000000       2.84354612      -0.00000000      -0.00000000      -0.00000000       2.84494645
Ba       0.00000000       3.93203019       0.00466759        2       0.61787901       0.00000004       0.00000004      -0.00776957      -0.00000000      -0.00000000      -0.02163408       0.00000000       7.86406038       0.00933518       2.84354611      -0.00000000      -0.00000000      -0.00000000       2.84354611      -0.00000000      -0.00000000      -0.00000000       2.84494645
Ba       0.00000000       3.93203019       3.98687644        2       0.61787901       0.00000004       0.00000004      -0.00776957      -0.00000000      -0.00000000      -0.02163408       0.00000000       7.86406038       7.97375288       2.84354611      -0.00000000      -0.00000000      -0.00000000       2.84354611      -0.00000000      -0.00000000      -0.00000000       2.84494645
Ba       0.00000000       3.93203019       7.96908529        2       0.61787901       0.00000004       0.00000004      -0.00776957      -0.00000000      -0.00000000      -0.02163408       0.00000000       7.86406038      15.93817058       2.84354611      -0.00000000      -0.00000000      -0.00000000       2.84354611      -0.00000000      -0.00000000      -0.00000000       2.84494645
Ba       0.00000000       7.86406039       0.00466759        2       0.61787901       0.00000004      -0.00000001      -0.00776957      -0.00000000      -0.00000000      -0.02163408       0.00000000      15.72812078       0.00933518       2.84354611       0.00000000      -0.00000000       0.00000000       2.84354611      -0.00000000      -0.00000000      -0.00000000       2.84494644
Ba       0.00000000       7.86406039       3.98687644        2       0.61787901       0.00000004      -0.00000001      -0.00776957      -0.00000000      -0.00000000      -0.02163408       0.00000000      15.72812078       7.97375288       2.84354611       0.00000000      -0.00000000       0.00000000       2.84354611      -0.00000000      -0.00000000      -0.00000000       2.84494644
Ba       0.00000000       7.86406039       7.96908529        2       0.61787901       0.00000004      -0.00000001      -0.00776957      -0.00000000      -0.00000000      -0.02163408       0.00000000      15.72812078      15.93817058       2.84354611       0.00000000      -0.00000000       0.00000000       2.84354611      -0.00000000      -0.00000000      -0.00000000       2.84494644
Ba       3.93203019       0.00000000       0.00466759        2       0.61787901       0.00000004       0.00000004      -0.00776957      -0.00000000      -0.00000000      -0.02163408       7.86406038       0.00000000       0.00933518       2.84354611      -0.00000000      -0.00000000      -0.00000000       2.84354611      -0.00000000      -0.00000000      -0.00000000       2.84494645
Ba       3.93203019       0.00000000       3.98687644        2       0.61787901       0.00000004       0.00000004      -0.00776957      -0.00000000      -0.00000000      -0.02163408       7.86406038       0.00000000       7.97375288       2.84354611      -0.00000000      -0.00000000      -0.00000000       2.84354611      -0.00000000      -0.00000000      -0.00000000       2.84494645
Ba       3.93203019       0.00000000       7.96908529        2       0.61787901       0.00000004       0.00000004      -0.00776957      -0.00000000      -0.00000000      -0.02163408       7.86406038       0.00000000      15.93817058       2.84354611      -0.00000000      -0.00000000      -0.00000000       2.84354611      -0.00000000      -0.00000000      -0.00000000       2.84494645
Ba       3.93203019       3.93203019       0.00466759        2       0.61787901       0.00000004       0.00000004      -0.00776957      -0.00000000      -0.00000000      -0.02163408       7.86406038       7.86406038       0.00933518       2.84354611      -0.00000000      -0.00000000      -0.00000000       2.84354611      -0.00000000      -0.00000000      -0.00000000       2.84494644
Ba       3.93203019       3.93203019       3.98687644        2       0.61787901       0.00000004       0.00000004      -0.00776957      -0.00000000      -0.00000000      -0.02163408       7.86406038       7.86406038       7.97375288       2.84354611      -0.00000000      -0.00000000      -0.00000000       2.84354611      -0.00000000      -0.00000000      -0.00000000       2.84494644
Ba       3.93203019       3.93203019       7.96908529        2       0.61787901       0.00000004       0.00000004      -0.00776957      -0.00000000      -0.00000000      -0.02163408       7.86406038       7.86406038      15.93817058       2.84354611      -0.00000000      -0.00000000      -0.00000000       2.84354611      -0.00000000      -0.00000000      -0.00000000       2.84494644
Ba       3.93203019       7.86406039       0.00466759        2       0.61787901       0.00000004      -0.00000001      -0.00776957      -0.00000000      -0.00000000      -0.02163408       7.86406038      15.72812078       0.00933518       2.84354611       0.00000000      -0.00000000       0.00000000       2.84354611      -0.00000000      -0.00000000      -0.00000000       2.84494644
Ba       3.93203019       7.86406039       3.98687644        2       0.61787901       0.00000004      -0.00000001      -0.00776957      -0.00000000      -0.00000000      -0.02163408       7.86406038      15.72812078       7.97375288       2.84354611       0.00000000      -0.00000000       0.00000000       2.84354611      -0.00000000      -0.00000000      -0.00000000       2.84494644
Ba       3.93203019       7.86406039       7.96908529        2       0.61787901       0.00000004      -0.00000001      -0.00776957      -0.00000000      -0.00000000      -0.02163408       7.86406038      15.72812078      15.93817058       2.84354611       0.00000000      -0.00000000       0.00000000       2.84354611      -0.00000000      -0.00000000      -0.00000000       2.84494644
Ba       7.86406039       0.00000000       0.00466759        2       0.61787901      -0.00000001       0.00000004      -0.00776957      -0.00000000      -0.00000000      -0.02163408      15.72812078       0.00000000       0.00933518       2.84354611       0.00000000      -0.00000000       0.00000000       2.84354611      -0.00000000      -0.00000000      -0.00000000       2.84494644
Ba       7.86406039       0.00000000       3.98687644        2       0.61787901      -0.00000001       0.00000004      -0.00776957      -0.00000000      -0.00000000      -0.02163408      15.72812078       0.00000000       7.97375288       2.84354611       0.00000000      -0.00000000       0.00000000       2.84354611      -0.00000000      -0.00000000      -0.00000000       2.84494644
Ba       7.86406039       0.00000000       7.96908529        2       0.61787901      -0.00000001       0.00000004      -0.00776957      -0.00000000      -0.00000000      -0.02163408      15.72812078       0.00000000      15.93817058       2.84354611       0.00000000      -0.00000000       0.00000000       2.84354611      -0.00000000      -0.00000000      -0.00000000       2.84494644
Ba       7.86406039       3.93203019       0.00466759        2       0.61787901      -0.00000001       0.00000004      -0.00776957      -0.00000000      -0.00000000      -0.02163408      15.72812078       7.86406038       0.00933518       2.84354611       0.00000000      -0.00000000       0.00000000       2.84354611      -0.00000000      -0.00000000      -0.00000000       2.84494644
Ba       7.86406039       3.93203019       3.98687644        2       0.61787901      -0.00000001       0.00000004      -0.00776957      -0.00000000      -0.00000000      -0.02163408      15.72812078       7.86406038       7.97375288       2.84354611       0.00000000      -0.00000000       0.00000000       2.84354611      -0.00000000      -0.00000000      -0.00000000       2.84494644
Ba       7.86406039       3.93203019       7.96908529        2       0.61787901      -0.00000001       0.00000004      -0.00776957      -0.00000000      -0.00000000      -0.02163408      15.72812078       7.86406038      15.93817058       2.84354611       0.00000000      -0.00000000      -0.00000000       2.84354611      -0.00000000      -0.00000000      -0.00000000       2.84494644
Ba       7.86406039       7.86406039       0.00466759        2       0.61787901      -0.00000001      -0.00000001      -0.00776957      -0.00000000      -0.00000000      -0.02163408      15.72812078      15.72812078       0.00933518       2.84354611      -0.00000000      -0.00000000      -0.00000000       2.84354611      -0.00000000      -0.00000000      -0.00000000       2.84494644
Ba       7.86406039       7.86406039       3.98687644        2       0.61787901      -0.00000001      -0.00000001      -0.00776957      -0.00000000      -0.00000000      -0.02163408      15.72812078      15.72812078       7.97375288       2.84354611      -0.00000000      -0.00000000      -0.00000000       2.84354611      -0.00000000      -0.00000000      -0.00000000       2.84494644
Ba       7.86406039       7.86406039       7.96908529        2       0.61787901      -0.00000001      -0.00000001      -0.00776957      -0.00000000      -0.00000000      -0.02163408      15.72812078      15.72812078      15.93817058       2.84354611       0.00000000      -0.00000000      -0.00000000       2.84354611      -0.00000000      -0.00000000      -0.00000000       2.84494644
O        1.96601510       0.00000000       2.04881606       -2       0.26410370      -0.00000003       0.00000006       0.01007671       0.00000000       0.00000001      -0.00365348      -3.93203020       0.00000000      -4.09763212      -2.08966240       0.00000000       0.00000000      -0.00000000      -5.74990573      -0.00000001       0.00000000      -0.00000001      -2.10502278
O        1.96601510       0.00000000       6.03102491       -2       0.26410370      -0.00000003       0.00000006       0.01007671       0.00000000       0.00000001      -0.00365348      -3.93203020       0.00000000     -12.06204982      -2.08966240      -0.00000000       0.00000000      -0.00000000      -5.74990573      -0.00000001       0.00000000      -0.00000001      -2.10502278
O        1.96601510       0.00000000      10.01323376       -2       0.26410370      -0.00000003       0.00000006       0.01007671       0.00000000       0.00000001      -0.00365348      -3.93203020       0.00000000     -20.02646752      -2.08966240       0.00000000       0.00000000      -0.00000000      -5.74990573      -0.00000001       0.00000000      -0.00000001      -2.10502278
O        1.96601510       3.93203019       2.04881606       -2       0.26410370      -0.00000003       0.00000006       0.01007671       0.00000000       0.00000001      -0.00365348      -3.93203020      -7.86406038      -4.09763212      -2.08966240      -0.00000000       0.00000000      -0.00000000      -5.74990573      -0.00000001       0.00000000      -0.00000000      -2.10502278
O        1.96601510       3.93203019       6.03102491       -2       0.26410370      -0.00000003       0.00000006       0.01007671       0.00000000       0.00000001      -0.00365348      -3.93203020      -7.86406038     -12.06204982      -2.08966240      -0.00000000       0.00000000      -0.00000000      -5.74990573      -0.00000001       0.00000000      -0.00000000      -2.10502278
O        1.96601510       3.93203019      10.01323376       -2       0.26410370      -0.00000003       0.00000006       0.01007671       0.00000000       0.00000001      -0.00365348      -3.93203020      -7.86406038     -20.02646752      -2.08966240      -0.00000000       0.00000000      -0.00000000      -5.74990573      -0.00000001       0.00000000      -0.00000000      -2.10502278
O        1.96601510       7.86406039       2.04881606       -2       0.26410370      -0.00000003      -0.00000004       0.01007671       0.00000000      -0.00000000      -0.00365348      -3.93203020     -15.72812078      -4.09763212      -2.08966242       0.00000000       0.00000000       0.00000000      -5.74990569      -0.00000000       0.00000000      -0.00000000      -2.10502279
O        1.96601510       7.86406039       6.03102491       -2       0.26410370      -0.00000003      -0.00000004       0.01007671       0.00000000      -0.00000000      -0.00365348      -3.93203020     -15.72812078     -12.06204982      -2.08966242       0.00000000       0.00000000       0.00000000      -5.74990569      -0.00000000       0.00000000      -0.00000000      -2.10502279
O        1.96601510       7.86406039      10.01323376       -2       0.26410370      -0.00000003      -0.00000004       0.01007671       0.00000000      -0.00000000      -0.00365348      -3.93203020     -15.72812078     -20.02646752      -2.08966242       0.00000000       0.00000000       0.00000000      -5.74990569      -0.00000000       0.00000000      -0.00000000      -2.10502279
O        5.89804529       0.00000000       2.04881606       -2       0.26410370      -0.00000001       0.00000006       0.01007671       0.00000000       0.00000001      -0.00365348     -11.79609058       0.00000000      -4.09763212      -2.08966240       0.00000000       0.00000000      -0.00000000      -5.74990574      -0.00000001       0.00000000      -0.00000001      -2.10502278
O        5.89804529       0.00000000       6.03102491       -2       0.26410370      -0.00000001       0.00000006       0.01007671       0.00000000       0.00000001      -0.00365348     -11.79609058       0.00000000     -12.06204982      -2.08966240       0.00000000       0.00000000      -0.00000000      -5.74990574      -0.00000001       0.00000000      -0.00000001      -2.10502278
O        5.89804529       0.00000000      10.01323376       -2       0.26410370      -0.00000001       0.00000006       0.01007671       0.00000000       0.00000001      -0.00365348     -11.79609058       0.00000000     -20.02646752      -2.08966240       0.00000000       0.00000000      -0.00000000      -5.74990574      -0.00000001       0.00000000      -0.00000001      -2.10502278
O        5.89804529       3.93203019       2.04881606       -2       0.26410370      -0.00000001       0.00000006       0.01007671       0.00000000       0.00000001      -0.00365348     -11.79609058      -7.86406038      -4.09763212      -2.08966240       0.00000000       0.00000000       0.00000000      -5.74990574      -0.00000001       0.00000000      -0.00000000      -2.10502278
O        5.89804529       3.93203019       6.03102491       -2       0.26410370      -0.00000001       0.00000006       0.01007671       0.00000000       0.00000001      -0.00365348     -11.79609058      -7.86406038     -12.06204982      -2.08966240      -0.00000000       0.00000000       0.00000000      -5.74990574      -0.00000001       0.00000000      -0.00000000      -2.10502278
O        5.89804529       3.93203019      10.01323376       -2       0.26410370      -0.00000001       0.00000006       0.01007671       0.00000000       0.00000001      -0.00365348     -11.79609058      -7.86406038     -20.02646752      -2.08966240       0.00000000       0.00000000       0.00000000      -5.74990574      -0.00000001       0.00000000      -0.00000000      -2.10502278
O        5.89804529       7.86406039       2.04881606       -2       0.26410370      -0.00000001      -0.00000004       0.01007671       0.00000000      -0.00000000      -0.00365348     -11.79609058     -15.72812078      -4.09763212      -2.08966241       0.00000000       0.00000000      -0.00000000      -5.74990570      -0.00000000       0.00000000      -0.00000000      -2.10502279
O        5.89804529       7.86406039       6.03102491       -2       0.26410370      -0.00000001      -0.00000004       0.01007671       0.00000000      -0.00000000      -0.00365348     -11.79609058     -15.72812078     -12.06204982      -2.08966241       0.00000000       0.00000000       0.00000000      -5.74990570      -0.00000000       0.00000000      -0.00000000      -2.10502279
O        5.89804529       7.86406039      10.01323376       -2       0.26410370      -0.00000001      -0.00000004       0.01007671       0.00000000      -0.00000000      -0.00365348     -11.79609058     -15.72812078     -20.02646752      -2.08966241      -0.00000000       0.00000000      -0.00000000      -5.74990570      -0.00000000       0.00000000      -0.00000000      -2.10502279
O        9.83007549       0.00000000       2.04881606       -2       0.26410370      -0.00000003       0.00000006       0.01007671       0.00000000       0.00000001      -0.00365348     -19.66015098       0.00000000      -4.09763212      -2.08966240       0.00000000       0.00000000       0.00000000      -5.74990573      -0.00000001       0.00000000      -0.00000001      -2.10502278
O        9.83007549       0.00000000       6.03102491       -2       0.26410370      -0.00000003       0.00000006       0.01007671       0.00000000       0.00000001      -0.00365348     -19.66015098       0.00000000     -12.06204982      -2.08966240       0.00000000       0.00000000       0.00000000      -5.74990573      -0.00000001       0.00000000      -0.00000001      -2.10502278
O        9.83007549       0.00000000      10.01323376       -2       0.26410370      -0.00000003       0.00000006       0.01007671       0.00000000       0.00000001      -0.00365348     -19.66015098       0.00000000     -20.02646752      -2.08966240       0.00000000       0.00000000      -0.00000000      -5.74990573      -0.00000001       0.00000000      -0.00000001      -2.10502278
O        9.83007549       3.93203019       2.04881606       -2       0.26410370      -0.00000003       0.00000006       0.01007671       0.00000000       0.00000001      -0.00365348     -19.66015098      -7.86406038      -4.09763212      -2.08966240      -0.00000000       0.00000000      -0.00000000      -5.74990573      -0.00000001       0.00000000      -0.00000000      -2.10502278
O        9.83007549       3.93203019       6.03102491       -2       0.26410370      -0.00000003       0.00000006       0.01007671       0.00000000       0.00000001      -0.00365348     -19.66015098      -7.86406038     -12.06204982      -2.08966240      -0.00000000       0.00000000      -0.00000000      -5.74990573      -0.00000001       0.00000000      -0.00000000      -2.10502278
O        9.83007549       3.93203019      10.01323376       -2       0.26410370      -0.00000003       0.00000006       0.01007671       0.00000000       0.00000001      -0.00365348     -19.66015098      -7.86406038     -20.02646752      -2.08966240       0.00000000       0.00000000      -0.00000000      -5.74990573      -0.00000001       0.00000000      -0.00000000      -2.10502278
O        9.83007549       7.86406039       2.04881606       -2       0.26410370      -0.00000003      -0.00000004       0.01007671       0.00000000      -0.00000000      -0.00365348     -19.66015098     -15.72812078      -4.09763212      -2.08966242      -0.00000000       0.00000000      -0.00000000      -5.74990569      -0.00000000       0.00000000      -0.00000000      -2.10502279
O        9.83007549       7.86406039       6.03102491       -2       0.26410370      -0.00000003      -0.00000004       0.01007671       0.00000000      -0.00000000      -0.00365348     -19.66015098     -15.72812078     -12.06204982      -2.08966242      -0.00000000       0.00000000      -0.00000000      -5.74990569      -0.00000000       0.00000000      -0.00000000      -2.10502279
O        9.83007549       7.86406039      10.01323376       -2       0.26410370      -0.00000003      -0.00000004       0.01007671       0.00000000      -0.00000000      -0.00365348     -19.66015098     -15.72812078     -20.02646752      -2.08966242      -0.00000000       0.00000000       0.00000000      -5.74990569      -0.00000000       0.00000000      -0.00000000      -2.10502279
O        0.00000000       1.96601510       2.04881606       -2       0.26410370       0.00000006      -0.00000003       0.01007671       0.00000001       0.00000000      -0.00365348       0.00000000      -3.93203020      -4.09763212      -5.74990573      -0.00000000      -0.00000001      -0.00000000      -2.08966240       0.00000000      -0.00000001       0.00000000      -2.10502278
O        0.00000000       1.96601510       6.03102491       -2       0.26410370       0.00000006      -0.00000003       0.01007671       0.00000001       0.00000000      -0.00365348       0.00000000      -3.93203020     -12.06204982      -5.74990573      -0.00000000      -0.00000001      -0.00000000      -2.08966240       0.00000000      -0.00000001       0.00000000      -2.10502278
O        0.00000000       1.96601510      10.01323376       -2       0.26410370       0.00000006      -0.00000003       0.01007671       0.00000001       0.00000000      -0.00365348       0.00000000      -3.93203020     -20.02646752      -5.74990573      -0.00000000      -0.00000001      -0.00000000      -2.08966240       0.00000000      -0.00000001       0.00000000      -2.10502278
O        0.00000000       5.89804529       2.04881606       -2       0.26410370       0.00000006      -0.00000001       0.01007671       0.00000001       0.00000000      -0.00365348       0.00000000     -11.79609058      -4.09763212      -5.74990574       0.00000000      -0.00000001       0.00000000      -2.08966240       0.00000000      -0.00000001       0.00000000      -2.10502278
O        0.00000000       5.89804529       6.03102491       -2       0.26410370       0.00000006      -0.00000001       0.01007671       0.00000001       0.00000000      -0.00365348       0.00000000     -11.79609058     -12.06204982      -5.74990574      -0.00000000      -0.00000001       0.00000000      -2.08966240       0.00000000      -0.00000001       0.00000000      -2.10502278
O        0.00000000       5.89804529      10.01323376       -2       0.26410370       0.00000006      -0.00000001       0.01007671       0.00000001       0.00000000      -0.00365348       0.00000000     -11.79609058     -20.02646752      -5.74990574       0.00000000      -0.00000001       0.00000000      -2.08966240       0.00000000      -0.00000001       0.00000000      -2.10502278
O        0.00000000       9.83007549       2.04881606       -2       0.26410370       0.00000006      -0.00000003       0.01007671       0.00000001       0.00000000      -0.00365348       0.00000000     -19.66015098      -4.09763212      -5.74990573       0.00000000      -0.00000001       0.00000000      -2.08966240       0.00000000      -0.00000001       0.00000000      -2.10502278
O        0.00000000       9.83007549       6.03102491       -2       0.26410370       0.00000006      -0.00000003       0.01007671       0.00000001       0.00000000      -0.00365348       0.00000000     -19.66015098     -12.06204982      -5.74990573       0.00000000      -0.00000001       0.00000000      -2.08966240       0.00000000      -0.00000001       0.00000000      -2.10502278
O        0.00000000       9.83007549      10.01323376       -2       0.26410370       0.00000006      -0.00000003       0.01007671       0.00000001       0.00000000      -0.00365348       0.00000000     -19.66015098     -20.02646752      -5.74990573      -0.00000000      -0.00000001      -0.00000000      -2.08966240       0.00000000      -0.00000001       0.00000000      -2.10502278
O        3.93203019       1.96601510       2.04881606       -2       0.26410370       0.00000006      -0.00000003       0.01007671       0.00000001       0.00000000      -0.00365348      -7.86406038      -3.93203020      -4.09763212      -5.74990573      -0.00000000      -0.00000001      -0.00000000      -2.08966240       0.00000000      -0.00000000       0.00000000      -2.10502278
O        3.93203019       1.96601510       6.03102491       -2       0.26410370       0.00000006      -0.00000003       0.01007671       0.00000001       0.00000000      -0.00365348      -7.86406038      -3.93203020     -12.06204982      -5.74990573      -0.00000000      -0.00000001      -0.00000000      -2.08966240       0.00000000      -0.00000000       0.00000000      -2.10502278
O        3.93203019       1.96601510      10.01323376       -2       0.26410370       0.00000006      -0.00000003       0.01007671       0.00000001       0.00000000      -0.00365348      -7.86406038      -3.93203020     -20.02646752      -5.74990573      -0.00000000      -0.00000001      -0.00000000      -2.08966240       0.00000000      -0.00000000       0.00000000      -2.10502278
O        3.93203019       5.89804529       2.04881606       -2       0.26410370       0.00000006      -0.00000001       0.01007671       0.00000001       0.00000000      -0.00365348      -7.86406038     -11.79609058      -4.09763212      -5.74990574      -0.00000000      -0.00000001       0.00000000      -2.08966240       0.00000000      -0.00000000       0.00000000      -2.10502278
O        3.93203019       5.89804529       6.03102491       -2       0.26410370       0.00000006      -0.00000001       0.01007671       0.00000001       0.00000000      -0.00365348      -7.86406038     -11.79609058     -12.06204982      -5.74990574      -0.00000000      -0.00000001       0.00000000      -2.08966240       0.00000000      -0.00000000       0.00000000      -2.10502278
O        3.93203019       5.89804529      10.01323376       -2       0.26410370       0.00000006      -0.00000001       0.01007671       0.00000001       0.00000000      -0.00365348      -7.86406038     -11.79609058     -20.02646752      -5.74990574      -0.00000000      -0.00000001      -0.00000000      -2.08966240       0.00000000      -0.00000000       0.00000000      -2.10502278
O        3.93203019       9.83007549       2.04881606       -2       0.26410370       0.00000006      -0.00000003       0.01007671       0.00000001       0.00000000      -0.00365348      -7.86406038     -19.66015098      -4.09763212      -5.74990573      -0.00000000      -0.00000001      -0.00000000      -2.08966240       0.00000000      -0.00000000       0.00000000      -2.10502278
O        3.93203019       9.83007549       6.03102491       -2       0.26410370       0.00000006      -0.00000003       0.01007671       0.00000001       0.00000000      -0.00365348      -7.86406038     -19.66015098     -12.06204982      -5.74990573      -0.00000000      -0.00000001      -0.00000000      -2.08966240       0.00000000      -0.00000000       0.00000000      -2.10502278
O        3.93203019       9.83007549      10.01323376       -2       0.26410370       0.00000006      -0.00000003       0.01007671       0.00000001       0.00000000      -0.00365348      -7.86406038     -19.66015098     -20.02646752      -5.74990573      -0.00000000      -0.00000001      -0.00000000      -2.08966240       0.00000000      -0.00000000       0.00000000      -2.10502278
O        7.86406039       1.96601510       2.04881606       -2       0.26410370      -0.00000004      -0.00000003       0.01007671      -0.00000000       0.00000000      -0.00365348     -15.72812078      -3.93203020      -4.09763212      -5.74990569       0.00000000      -0.00000000       0.00000000      -2.08966242       0.00000000      -0.00000000       0.00000000      -2.10502279
O        7.86406039       1.96601510       6.03102491       -2       0.26410370      -0.00000004      -0.00000003       0.01007671      -0.00000000       0.00000000      -0.00365348     -15.72812078      -3.93203020     -12.06204982      -5.74990569       0.00000000      -0.00000000       0.00000000      -2.08966242       0.00000000      -0.00000000       0.00000000      -2.10502279
O        7.86406039       1.96601510      10.01323376       -2       0.26410370      -0.00000004      -0.00000003       0.01007671      -0.00000000       0.00000000      -0.00365348     -15.72812078      -3.93203020     -20.02646752      -5.74990569       0.00000000      -0.00000000       0.00000000      -2.08966242       0.00000000      -0.00000000       0.00000000      -2.10502279
O        7.86406039       5.89804529       2.04881606       -2       0.26410370      -0.00000004      -0.00000001       0.01007671      -0.00000000       0.00000000      -0.00365348     -15.72812078     -11.79609058      -4.09763212      -5.74990570       0.00000000      -0.00000000      -0.00000000      -2.08966241       0.00000000      -0.00000000       0.00000000      -2.10502279
O        7.86406039       5.89804529       6.03102491       -2       0.26410370      -0.00000004      -0.00000001       0.01007671      -0.00000000       0.00000000      -0.00365348     -15.72812078     -11.79609058     -12.06204982      -5.74990570       0.00000000      -0.00000000       0.00000000      -2.08966241       0.00000000      -0.00000000       0.00000000      -2.10502279
O        7.86406039       5.89804529      10.01323376       -2       0.26410370      -0.00000004      -0.00000001       0.01007671      -0.00000000       0.00000000      -0.00365348     -15.72812078     -11.79609058     -20.02646752      -5.74990570      -0.00000000      -0.00000000       0.00000000      -2.08966241       0.00000000      -0.00000000       0.00000000      -2.10502279
O        7.86406039       9.83007549       2.04881606       -2       0.26410370      -0.00000004      -0.00000003       0.01007671      -0.00000000       0.00000000      -0.00365348     -15.72812078     -19.66015098      -4.09763212      -5.74990569      -0.00000000      -0.00000000       0.00000000      -2.08966242       0.00000000      -0.00000000       0.00000000      -2.10502279
O        7.86406039       9.83007549       6.03102491       -2       0.26410370      -0.00000004      -0.00000003       0.01007671      -0.00000000       0.00000000      -0.00365348     -15.72812078     -19.66015098     -12.06204982      -5.74990569      -0.00000000      -0.00000000      -0.00000000      -2.08966242       0.00000000      -0.00000000       0.00000000      -2.10502279
O        7.86406039       9.83007549      10.01323376       -2       0.26410370      -0.00000004      -0.00000003       0.01007671      -0.00000000       0.00000000      -0.00365348     -15.72812078     -19.66015098     -20.02646752      -5.74990569       0.00000000      -0.00000000       0.00000000      -2.08966242       0.00000000      -0.00000000       0.00000000      -2.10502279
O        1.96601510       1.96601510       0.08648110       -2       0.21847514      -0.00000003      -0.00000003      -0.11365835       0.00000000       0.00000000      -0.28593176      -3.93203020      -3.93203020      -0.17296220      -2.03736170       0.00000000      -0.00000000       0.00000000      -2.03736170      -0.00000000      -0.00000000      -0.00000000      -5.31377487
O        1.96601510       1.96601510       4.06868995       -2       0.21847514      -0.00000003      -0.00000003      -0.11365835       0.00000000       0.00000000      -0.28593176      -3.93203020      -3.93203020      -8.13737990      -2.03736170       0.00000000      -0.00000000       0.00000000      -2.03736170      -0.00000000      -0.00000000      -0.00000000      -5.31377487
O        1.96601510       1.96601510       8.05089880       -2       0.21847514      -0.00000003      -0.00000003      -0.11365835       0.00000000       0.00000000      -0.28593176      -3.93203020      -3.93203020     -16.10179760      -2.03736170       0.00000000      -0.00000000      -0.00000000      -2.03736170      -0.00000000      -0.00000000      -0.00000000      -5.31377487
O        1.96601510       5.89804529       0.08648110       -2       0.21847514      -0.00000003      -0.00000001      -0.11365834       0.00000000       0.00000000      -0.28593176      -3.93203020     -11.79609058      -0.17296220      -2.03736170       0.00000000      -0.00000000       0.00000000      -2.03736170      -0.00000000      -0.00000000      -0.00000000      -5.31377488
O        1.96601510       5.89804529       4.06868995       -2       0.21847514      -0.00000003      -0.00000001      -0.11365834       0.00000000       0.00000000      -0.28593176      -3.93203020     -11.79609058      -8.13737990      -2.03736170      -0.00000000      -0.00000000       0.00000000      -2.03736170      -0.00000000      -0.00000000      -0.00000000      -5.31377488
O        1.96601510       5.89804529       8.05089880       -2       0.21847514      -0.00000003      -0.00000001      -0.11365834       0.00000000       0.00000000      -0.28593176      -3.93203020     -11.79609058     -16.10179760      -2.03736170       0.00000000      -0.00000000       0.00000000      -2.03736170      -0.00000000      -0.00000000      -0.00000000      -5.31377488
O        1.96601510       9.83007549       0.08648110       -2       0.21847514      -0.00000003      -0.00000003      -0.11365835       0.00000000       0.00000000      -0.28593176      -3.93203020     -19.66015098      -0.17296220      -2.03736170      -0.00000000      -0.00000000       0.00000000      -2.03736171      -0.00000000      -0.00000000      -0.00000000      -5.31377487
O        1.96601510       9.83007549       4.06868995       -2       0.21847514      -0.00000003      -0.00000003      -0.11365835       0.00000000       0.00000000      -0.28593176      -3.93203020     -19.66015098      -8.13737990      -2.03736170       0.00000000      -0.00000000      -0.00000000      -2.03736171      -0.00000000      -0.00000000      -0.00000000      -5.31377487
O        1.96601510       9.83007549       8.05089880       -2       0.21847514      -0.00000003      -0.00000003      -0.11365835       0.00000000       0.00000000      -0.28593176      -3.93203020     -19.66015098     -16.10179760      -2.03736170       0.00000000      -0.00000000       0.00000000      -2.03736171      -0.00000000      -0.00000000      -0.00000000      -5.31377487
O        5.89804529       1.96601510       0.08648110       -2       0.21847514      -0.00000001      -0.00000003      -0.11365834       0.00000000       0.00000000      -0.28593176     -11.79609058      -3.93203020      -0.17296220      -2.03736170       0.00000000      -0.00000000       0.00000000      -2.03736170      -0.00000000      -0.00000000      -0.00000000      -5.31377488
O        5.89804529       1.96601510       4.06868995       -2       0.21847514      -0.00000001      -0.00000003      -0.11365834       0.00000000       0.00000000      -0.28593176     -11.79609058      -3.93203020      -8.13737990      -2.03736170       0.00000000      -0.00000000       0.00000000      -2.03736170      -0.00000000      -0.00000000      -0.00000000      -5.31377488
O        5.89804529       1.96601510       8.05089880       -2       0.21847514      -0.00000001      -0.00000003      -0.11365834       0.00000000       0.00000000      -0.28593176     -11.79609058      -3.93203020     -16.10179760      -2.03736170      -0.00000000      -0.00000000      -0.00000000      -2.03736170      -0.00000000      -0.00000000      -0.00000000      -5.31377488
O        5.89804529       5.89804529       0.08648110       -2       0.21847514      -0.00000001      -0.00000001      -0.11365833       0.00000000       0.00000000      -0.28593176     -11.79609058     -11.79609058      -0.17296220      -2.03736170      -0.00000000      -0.00000000       0.00000000      -2.03736170      -0.00000000      -0.00000000      -0.00000000      -5.31377489
O        5.89804529       5.89804529       4.06868995       -2       0.21847514      -0.00000001      -0.00000001      -0.11365833       0.00000000       0.00000000      -0.28593176     -11.79609058     -11.79609058      -8.13737990      -2.03736170       0.00000000      -0.00000000       0.00000000      -2.03736170      -0.00000000      -0.00000000      -0.00000000      -5.31377489
O        5.89804529       5.89804529       8.05089880       -2       0.21847514      -0.00000001      -0.00000001      -0.11365833       0.00000000       0.00000000      -0.28593176     -11.79609058     -11.79609058     -16.10179760      -2.03736170       0.00000000      -0.00000000       0.00000000      -2.03736170      -0.00000000      -0.00000000      -0.00000000      -5.31377489
O        5.89804529       9.83007549       0.08648110       -2       0.21847514      -0.00000001      -0.00000003      -0.11365834       0.00000000       0.00000000      -0.28593176     -11.79609058     -19.66015098      -0.17296220      -2.03736170      -0.00000000      -0.00000000       0.00000000      -2.03736170      -0.00000000      -0.00000000      -0.00000000      -5.31377488
O        5.89804529       9.83007549       4.06868995       -2       0.21847514      -0.00000001      -0.00000003      -0.11365834       0.00000000       0.00000000      -0.28593176     -11.79609058     -19.66015098      -8.13737990      -2.03736170      -0.00000000      -0.00000000       0.00000000      -2.03736170      -0.00000000      -0.00000000      -0.00000000      -5.31377488
O        5.89804529       9.83007549       8.05089880       -2       0.21847514      -0.00000001      -0.00000003      -0.11365834       0.00000000       0.00000000      -0.28593176     -11.79609058     -19.66015098     -16.10179760      -2.03736170       0.00000000      -0.00000000       0.00000000      -2.03736170      -0.00000000      -0.00000000      -0.00000000      -5.31377488
O        9.83007549       1.96601510       0.08648110       -2       0.21847514      -0.00000003      -0.00000003      -0.11365835       0.00000000       0.00000000      -0.28593176     -19.66015098      -3.93203020      -0.17296220      -2.03736171       0.00000000      -0.00000000      -0.00000000      -2.03736170      -0.00000000      -0.00000000      -0.00000000      -5.31377487
O        9.83007549       1.96601510       4.06868995       -2       0.21847514      -0.00000003      -0.00000003      -0.11365835       0.00000000       0.00000000      -0.28593176     -19.66015098      -3.93203020      -8.13737990      -2.03736171       0.00000000      -0.00000000       0.00000000      -2.03736170      -0.00000000      -0.00000000      -0.00000000      -5.31377487
O        9.83007549       1.96601510       8.05089880       -2       0.21847514      -0.00000003      -0.00000003      -0.11365835       0.00000000       0.00000000      -0.28593176     -19.66015098      -3.93203020     -16.10179760      -2.03736171       0.00000000      -0.00000000       0.00000000      -2.03736170      -0.00000000      -0.00000000      -0.00000000      -5.31377487
O        9.83007549       5.89804529       0.08648110       -2       0.21847514      -0.00000003      -0.00000001      -0.11365834       0.00000000       0.00000000      -0.28593176     -19.66015098     -11.79609058      -0.17296220      -2.03736170       0.00000000      -0.00000000      -0.00000000      -2.03736170      -0.00000000      -0.00000000      -0.00000000      -5.31377488
O        9.83007549       5.89804529       4.06868995       -2       0.21847514      -0.00000003      -0.00000001      -0.11365834       0.00000000       0.00000000      -0.28593176     -19.66015098     -11.79609058      -8.13737990      -2.03736170       0.00000000      -0.00000000       0.00000000      -2.03736170      -0.00000000      -0.00000000      -0.00000000      -5.31377488
O        9.83007549       5.89804529       8.05089880       -2       0.21847514      -0.00000003      -0.00000001      -0.11365834       0.00000000       0.00000000      -0.28593176     -19.66015098     -11.79609058     -16.10179760      -2.03736170      -0.00000000      -0.00000000      -0.00000000      -2.03736170      -0.00000000      -0.00000000      -0.00000000      -5.31377488
O        9.83007549       9.83007549       0.08648110       -2       0.21847514      -0.00000003      -0.00000003      -0.11365836       0.00000000       0.00000000      -0.28593176     -19.66015098     -19.66015098      -0.17296220      -2.03736171      -0.00000000      -0.00000000      -0.00000000      -2.03736171      -0.00000000      -0.00000000      -0.00000000      -5.31377487
O        9.83007549       9.83007549       4.06868995       -2       0.21847514      -0.00000003      -0.00000003      -0.11365836       0.00000000       0.00000000      -0.28593176     -19.66015098     -19.66015098      -8.13737990      -2.03736171       0.00000000      -0.00000000      -0.00000000      -2.03736171      -0.00000000      -0.00000000      -0.00000000      -5.31377487
O        9.83007549       9.83007549       8.05089880       -2       0.21847514      -0.00000003      -0.00000003      -0.11365836       0.00000000       0.00000000      -0.28593176     -19.66015098     -19.66015098     -16.10179760      -2.03736171      -0.00000000      -0.00000000       0.00000000      -2.03736171      -0.00000000      -0.00000000      -0.00000000      -5.31377487
Ti       1.96601510       1.96601510       1.93982197        4      -1.46707828      -0.00000001      -0.00000001       0.10127449       0.00000000       0.00000000      -0.13828257       7.86406040       7.86406040       7.75928788       7.03338372      -0.00000000       0.00000001      -0.00000000       7.03338372       0.00000001       0.00000001       0.00000001       6.67887399
Ti       1.96601510       1.96601510       5.92203082        4      -1.46707828      -0.00000001      -0.00000001       0.10127449       0.00000000       0.00000000      -0.13828257       7.86406040       7.86406040      23.68812328       7.03338372      -0.00000000       0.00000001      -0.00000000       7.03338372       0.00000001       0.00000001       0.00000001       6.67887399
Ti       1.96601510       1.96601510       9.90423967        4      -1.46707828      -0.00000001      -0.00000001       0.10127449       0.00000000       0.00000000      -0.13828257       7.86406040       7.86406040      39.61695868       7.03338372      -0.00000000       0.00000001      -0.00000000       7.03338372       0.00000001       0.00000001       0.00000001       6.67887399
Ti       1.96601510       5.89804529       1.93982197        4      -1.46707828      -0.00000001       0.00000004       0.10127449       0.00000000       0.00000000      -0.13828257       7.86406040      23.59218116       7.75928788       7.03338374      -0.00000000       0.00000001       0.00000000       7.03338368      -0.00000000       0.00000001       0.00000000       6.67887401
Ti       1.96601510       5.89804529       5.92203082        4      -1.46707828      -0.00000001       0.00000004       0.10127449       0.00000000       0.00000000      -0.13828257       7.86406040      23.59218116      23.68812328       7.03338374       0.00000000       0.00000001       0.00000000       7.03338368      -0.00000000       0.00000001       0.00000000       6.67887401
Ti       1.96601510       5.89804529       9.90423967        4      -1.46707828      -0.00000001       0.00000004       0.10127449       0.00000000       0.00000000      -0.13828257       7.86406040      23.59218116      39.61695868       7.03338374      -0.00000000       0.00000001       0.00000000       7.03338368      -0.00000000       0.00000001       0.00000000       6.67887401
Ti       1.96601510       9.83007549       1.93982197        4      -1.46707828      -0.00000001      -0.00000006       0.10127450       0.00000000       0.00000001      -0.13828257       7.86406040      39.32030196       7.75928788       7.03338372       0.00000000       0.00000001       0.00000000       7.03338373       0.00000001       0.00000001       0.00000001       6.67887398
Ti       1.96601510       9.83007549       5.92203082        4      -1.46707828      -0.00000001      -0.00000006       0.10127450       0.00000000       0.00000001      -0.13828257       7.86406040      39.32030196      23.68812328       7.03338372       0.00000000       0.00000001      -0.00000000       7.03338373       0.00000001       0.00000001       0.00000001       6.67887398
Ti       1.96601510       9.83007549       9.90423967        4      -1.46707828      -0.00000001      -0.00000006       0.10127450       0.00000000       0.00000001      -0.13828257       7.86406040      39.32030196      39.61695868       7.03338372      -0.00000000       0.00000001       0.00000000       7.03338373       0.00000001       0.00000001       0.00000001       6.67887398
Ti       5.89804529       1.96601510       1.93982197        4      -1.46707828       0.00000004      -0.00000001       0.10127449       0.00000000       0.00000000      -0.13828257      23.59218116       7.86406040       7.75928788       7.03338368      -0.00000000      -0.00000000       0.00000000       7.03338374       0.00000001       0.00000000       0.00000001       6.67887401
Ti       5.89804529       1.96601510       5.92203082        4      -1.46707828       0.00000004      -0.00000001       0.10127449       0.00000000       0.00000000      -0.13828257      23.59218116       7.86406040      23.68812328       7.03338368       0.00000000      -0.00000000       0.00000000       7.03338374       0.00000001       0.00000000       0.00000001       6.67887401
Ti       5.89804529       1.96601510       9.90423967        4      -1.46707828       0.00000004      -0.00000001       0.10127449       0.00000000       0.00000000      -0.13828257      23.59218116       7.86406040      39.61695868       7.03338368       0.00000000      -0.00000000       0.00000000       7.03338374       0.00000001       0.00000000       0.00000001       6.67887401
Ti       5.89804529       5.89804529       1.93982197        4      -1.46707829       0.00000004       0.00000004       0.10127448       0.00000000       0.00000000      -0.13828257      23.59218116      23.59218116       7.75928788       7.03338370       0.00000000      -0.00000000      -0.00000000       7.03338370      -0.00000000       0.00000000       0.00000000       6.67887403
Ti       5.89804529       5.89804529       5.92203082        4      -1.46707829       0.00000004       0.00000004       0.10127448       0.00000000       0.00000000      -0.13828257      23.59218116      23.59218116      23.68812328       7.03338370       0.00000000      -0.00000000       0.00000000       7.03338370      -0.00000000       0.00000000       0.00000000       6.67887403
Ti       5.89804529       5.89804529       9.90423967        4      -1.46707829       0.00000004       0.00000004       0.10127448       0.00000000       0.00000000      -0.13828257      23.59218116      23.59218116      39.61695868       7.03338370      -0.00000000      -0.00000000      -0.00000000       7.03338370      -0.00000000       0.00000000       0.00000000       6.67887403
Ti       5.89804529       9.83007549       1.93982197        4      -1.46707829       0.00000004      -0.00000006       0.10127449       0.00000000       0.00000001      -0.13828257      23.59218116      39.32030196       7.75928788       7.03338368       0.00000000      -0.00000000       0.00000000       7.03338375       0.00000001       0.00000000       0.00000001       6.67887400
Ti       5.89804529       9.83007549       5.92203082        4      -1.46707829       0.00000004      -0.00000006       0.10127449       0.00000000       0.00000001      -0.13828257      23.59218116      39.32030196      23.68812328       7.03338368      -0.00000000      -0.00000000       0.00000000       7.03338375       0.00000001       0.00000000       0.00000001       6.67887400
Ti       5.89804529       9.83007549       9.90423967        4      -1.46707829       0.00000004      -0.00000006       0.10127449       0.00000000       0.00000001      -0.13828257      23.59218116      39.32030196      39.61695868       7.03338368      -0.00000000      -0.00000000       0.00000000       7.03338375       0.00000001       0.00000000       0.00000001       6.67887400
Ti       9.83007549       1.96601510       1.93982197        4      -1.46707828      -0.00000006      -0.00000001       0.10127450       0.00000001       0.00000000      -0.13828257      39.32030196       7.86406040       7.75928788       7.03338373       0.00000000       0.00000001      -0.00000000       7.03338372       0.00000001       0.00000001       0.00000001       6.67887398
Ti       9.83007549       1.96601510       5.92203082        4      -1.46707828      -0.00000006      -0.00000001       0.10127450       0.00000001       0.00000000      -0.13828257      39.32030196       7.86406040      23.68812328       7.03338373       0.00000000       0.00000001       0.00000000       7.03338372       0.00000001       0.00000001       0.00000001       6.67887398
Ti       9.83007549       1.96601510       9.90423967        4      -1.46707828      -0.00000006      -0.00000001       0.10127450       0.00000001       0.00000000      -0.13828257      39.32030196       7.86406040      39.61695868       7.03338373      -0.00000000       0.00000001       0.00000000       7.03338372       0.00000001       0.00000001       0.00000001       6.67887398
Ti       9.83007549       5.89804529       1.93982197        4      -1.46707829      -0.00000006       0.00000004       0.10127449       0.00000001       0.00000000      -0.13828257      39.32030196      23.59218116       7.75928788       7.03338375       0.00000000       0.00000001      -0.00000000       7.03338368      -0.00000000       0.00000001       0.00000000       6.67887400
Ti       9.83007549       5.89804529       5.92203082        4      -1.46707829      -0.00000006       0.00000004       0.10127449       0.00000001       0.00000000      -0.13828257      39.32030196      23.59218116      23.68812328       7.03338375       0.00000000       0.00000001      -0.00000000       7.03338368      -0.00000000       0.00000001       0.00000000       6.67887400
Ti       9.83007549       5.89804529       9.90423967        4      -1.46707829      -0.00000006       0.00000004       0.10127449       0.00000001       0.00000000      -0.13828257      39.32030196      23.59218116      39.61695868       7.03338375       0.00000000       0.00000001       0.00000000       7.03338368      -0.00000000       0.00000001       0.00000000       6.67887400
Ti       9.83007549       9.83007549       1.93982197        4      -1.46707829      -0.00000006      -0.00000006       0.10127450       0.00000001       0.00000001      -0.13828257      39.32030196      39.32030196       7.75928788       7.03338373      -0.00000000       0.00000001      -0.00000000       7.03338373       0.00000001       0.00000001       0.00000001       6.67887398
Ti       9.83007549       9.83007549       5.92203082        4      -1.46707829      -0.00000006      -0.00000006       0.10127450       0.00000001       0.00000001      -0.13828257      39.32030196      39.32030196      23.68812328       7.03338373      -0.00000000       0.00000001      -0.00000000       7.03338373       0.00000001       0.00000001       0.00000001       6.67887398
Ti       9.83007549       9.83007549       9.90423967        4      -1.46707829      -0.00000006      -0.00000006       0.10127450       0.00000001       0.00000001      -0.13828257      39.32030196      39.32030196      39.61695868       7.03338373      -0.00000000       0.00000001      -0.00000000       7.03338373       0.00000001       0.00000001       0.00000001       6.67887398
