40
Lattice="7.864060385000002 0.0 0.0 0.0 7.864060385000002 0.0 0.0 0.0 7.96441770000002" Properties=species:S:1:pos:R:3:oxn:I:1:REF_node_energy:R:1:REF_forces:R:3:REF_atomic_dipoles:R:3:REF_atomic-oxn-dipole:R:3:REF_BEC:R:9 REF_energy=-29615.074151390087 REF_stress="_JSON [[-0.03578158706354752, -6.76043543622564e-17, -5.926337790108836e-11], [-6.76043543622564e-17, -0.03578158706354756, -5.92633715026468e-11], [-5.926337790108836e-11, -5.92633715026468e-11, -0.03509376922291534]]" REF_displacement="_JSON [[0.0, 0.0, 0.0], [0.0, 0.0, 0.0], [0.0, 0.0, 0.0]]" REF_dipole="8.719071686869029e-08 8.71907488431134e-08 -8.422069986848367" REF_piezoelectric="_JSON [[[-1.0815558312340064e-09, 1.3166770096071402e-10, -0.00664098407150155], [1.3166770096071402e-10, 1.3403730479543386e-10, -2.878541242138542e-18], [-0.00664098407150155, -2.878541242138542e-18, 1.3754361242697056e-10]], [[1.3403723266343482e-10, 1.3166772735675556e-10, -1.2674836822213227e-17], [1.3166772735675556e-10, -1.0815558600857783e-09, -0.006640984071501458], [-1.2674836822213227e-17, -0.006640984071501458, 1.375435446300849e-10]], [[0.002394192955820502, -1.54358009426762e-18, 1.1881078539732665e-10], [-1.54358009426762e-18, 0.00239419295582052, 1.188107829529788e-10], [1.1881078539732665e-10, 1.188107829529788e-10, 0.056119439350691434]]]" pbc="T T T"
Ba       0.00000000       0.00000000       0.00466759        2       0.61787901       0.00000001       0.00000001      -0.00776957      -0.00000000      -0.00000000      -0.02163408       0.00000000       0.00000000       0.00933518       2.84354611       0.00000000      -0.00000000       0.00000000       2.84354611      -0.00000000      -0.00000000      -0.00000000       2.84494644
Ba       3.93203019       0.00000000       0.00466759        2       0.61787901       0.00000003       0.00000001      -0.00776957      -0.00000000      -0.00000000      -0.02163408       7.86406038       0.00000000       0.00933518       2.84354611       0.00000000      -0.00000000      -0.00000000       2.84354611      -0.00000000      -0.00000000      -0.00000000       2.84494644
Ba       0.00000000       3.93203019       0.00466759        2       0.61787901       0.00000001       0.00000003      -0.00776957      -0.00000000      -0.00000000      -0.02163408       0.00000000       7.86406038       0.00933518       2.84354611       0.00000000      -0.00000000      -0.00000000       2.84354611      -0.00000000      -0.00000000      -0.00000000       2.84494644
Ba       3.93203019       3.93203019       0.00466759        2       0.61787901       0.00000003       0.00000003      -0.00776957      -0.00000000      -0.00000000      -0.02163408       7.86406038       7.86406038       0.00933518       2.84354611      -0.00000000      -0.00000000      -0.00000000       2.84354611      -0.00000000      -0.00000000      -0.00000000       2.84494645
Ba       0.00000000       0.00000000       3.98687644        2       0.61787901       0.00000001       0.00000001      -0.00776957      -0.00000000      -0.00000000      -0.02163408       0.00000000       0.00000000       7.97375288       2.84354611       0.00000000      -0.00000000       0.00000000       2.84354611      -0.00000000      -0.00000000      -0.00000000       2.84494644
Ba       3.93203019       0.00000000       3.98687644        2       0.61787901       0.00000003       0.00000001      -0.00776957      -0.00000000      -0.00000000      -0.02163408       7.86406038       0.00000000       7.97375288       2.84354611      -0.00000000      -0.00000000      -0.00000000       2.84354611      -0.00000000      -0.00000000      -0.00000000       2.84494644
Ba       0.00000000       3.93203019       3.98687644        2       0.61787901       0.00000001       0.00000003      -0.00776957      -0.00000000      -0.00000000      -0.02163408       0.00000000       7.86406038       7.97375288       2.84354611      -0.00000000      -0.00000000      -0.00000000       2.84354611      -0.00000000      -0.00000000      -0.00000000       2.84494644
Ba       3.93203019       3.93203019       3.98687644        2       0.61787901       0.00000003       0.00000003      -0.00776957      -0.00000000      -0.00000000      -0.02163408       7.86406038       7.86406038       7.97375288       2.84354611       0.00000000      -0.00000000       0.00000000       2.84354611      -0.00000000      -0.00000000      -0.00000000       2.84494645
O        1.96601510       0.00000000       2.04881606       -2       0.26410370      -0.00000003       0.00000000       0.01007671       0.00000000       0.00000000      -0.00365348      -3.93203020       0.00000000      -4.09763212      -2.08966241       0.00000000       0.00000000      -0.00000000      -5.74990571      -0.00000000       0.00000000      -0.00000000      -2.10502279
O        5.89804529       0.00000000       2.04881606       -2       0.26410370      -0.00000002       0.00000000       0.01007671       0.00000000       0.00000000      -0.00365348     -11.79609058       0.00000000      -4.09763212      -2.08966241      -0.00000000       0.00000000      -0.00000000      -5.74990571      -0.00000000       0.00000000      -0.00000000      -2.10502279
O        1.96601510       3.93203019       2.04881606       -2       0.26410370      -0.00000003       0.00000005       0.01007671       0.00000000       0.00000001      -0.00365348      -3.93203020      -7.86406038      -4.09763212      -2.08966240       0.00000000       0.00000000      -0.00000000      -5.74990573      -0.00000001       0.00000000      -0.00000001      -2.10502278
O        5.89804529       3.93203019       2.04881606       -2       0.26410370      -0.00000002       0.00000005       0.01007671       0.00000000       0.00000001      -0.00365348     -11.79609058      -7.86406038      -4.09763212      -2.08966240      -0.00000000       0.00000000       0.00000000      -5.74990573      -0.00000001       0.00000000      -0.00000001      -2.10502278
O        1.96601510       0.00000000       6.03102491       -2       0.26410370      -0.00000003       0.00000000       0.01007671       0.00000000       0.00000000      -0.00365348      -3.93203020       0.00000000     -12.06204982      -2.08966241       0.00000000       0.00000000       0.00000000      -5.74990571      -0.00000000       0.00000000      -0.00000000      -2.10502279
O        5.89804529       0.00000000       6.03102491       -2       0.26410370      -0.00000002       0.00000000       0.01007671       0.00000000       0.00000000      -0.00365348     -11.79609058       0.00000000     -12.06204982      -2.08966241       0.00000000       0.00000000       0.00000000      -5.74990571      -0.00000000       0.00000000      -0.00000000      -2.10502279
O        1.96601510       3.93203019       6.03102491       -2       0.26410370      -0.00000003       0.00000005       0.01007671       0.00000000       0.00000001      -0.00365348      -3.93203020      -7.86406038     -12.06204982      -2.08966240      -0.00000000       0.00000000      -0.00000000      -5.74990573      -0.00000001       0.00000000      -0.00000001      -2.10502278
O        5.89804529       3.93203019       6.03102491       -2       0.26410370      -0.00000002       0.00000005       0.01007671       0.00000000       0.00000001      -0.00365348     -11.79609058      -7.86406038     -12.06204982      -2.08966240      -0.00000000       0.00000000      -0.00000000      -5.74990573      -0.00000001       0.00000000      -0.00000001      -2.10502278
O        0.00000000       1.96601510       2.04881606       -2       0.26410370       0.00000000      -0.00000003       0.01007671       0.00000000       0.00000000      -0.00365348       0.00000000      -3.93203020      -4.09763212      -5.74990571      -0.00000000      -0.00000000       0.00000000      -2.08966241       0.00000000      -0.00000000       0.00000000      -2.10502279
O        3.93203019       1.96601510       2.04881606       -2       0.26410370       0.00000005      -0.00000003       0.01007671       0.00000001       0.00000000      -0.00365348      -7.86406038      -3.93203020      -4.09763212      -5.74990573      -0.00000000      -0.00000001       0.00000000      -2.08966240       0.00000000      -0.00000001       0.00000000      -2.10502278
O        0.00000000       5.89804529       2.04881606       -2       0.26410370       0.00000000      -0.00000002       0.01007671       0.00000000       0.00000000      -0.00365348       0.00000000     -11.79609058      -4.09763212      -5.74990571      -0.00000000      -0.00000000      -0.00000000      -2.08966241       0.00000000      -0.00000000       0.00000000      -2.10502279
O        3.93203019       5.89804529       2.04881606       -2       0.26410370       0.00000005      -0.00000002       0.01007671       0.00000001       0.00000000      -0.00365348      -7.86406038     -11.79609058      -4.09763212      -5.74990573      -0.00000000      -0.00000001       0.00000000      -2.08966240       0.00000000      -0.00000001       0.00000000      -2.10502278
O        0.00000000       1.96601510       6.03102491       -2       0.26410370       0.00000000      -0.00000003       0.01007671       0.00000000       0.00000000      -0.00365348       0.00000000      -3.93203020     -12.06204982      -5.74990571       0.00000000      -0.00000000       0.00000000      -2.08966241       0.00000000      -0.00000000       0.00000000      -2.10502279
O        3.93203019       1.96601510       6.03102491       -2       0.26410370       0.00000005      -0.00000003       0.01007671       0.00000001       0.00000000      -0.00365348      -7.86406038      -3.93203020     -12.06204982      -5.74990573      -0.00000000      -0.00000001      -0.00000000      -2.08966240       0.00000000      -0.00000001       0.00000000      -2.10502278
O        0.00000000       5.89804529       6.03102491       -2       0.26410370       0.00000000      -0.00000002       0.01007671       0.00000000       0.00000000      -0.00365348       0.00000000     -11.79609058     -12.06204982      -5.74990571       0.00000000      -0.00000000       0.00000000      -2.08966241       0.00000000      -0.00000000       0.00000000      -2.10502279
O        3.93203019       5.89804529       6.03102491       -2       0.26410370       0.00000005      -0.00000002       0.01007671       0.00000001       0.00000000      -0.00365348      -7.86406038     -11.79609058     -12.06204982      -5.74990573      -0.00000000      -0.00000001      -0.00000000      -2.08966240       0.00000000      -0.00000001       0.00000000      -2.10502278
O        1.96601510       1.96601510       0.08648110       -2       0.21847514      -0.00000003      -0.00000003      -0.11365835       0.00000000       0.00000000      -0.28593176      -3.93203020      -3.93203020      -0.17296220      -2.03736170       0.00000000      -0.00000000       0.00000000      -2.03736170      -0.00000000      -0.00000000      -0.00000000      -5.31377487
O        5.89804529       1.96601510       0.08648110       -2       0.21847514      -0.00000002      -0.00000003      -0.11365834       0.00000000       0.00000000      -0.28593176     -11.79609058      -3.93203020      -0.17296220      -2.03736170       0.00000000      -0.00000000      -0.00000000      -2.03736170      -0.00000000      -0.00000000      -0.00000000      -5.31377488
O        1.96601510       5.89804529       0.08648110       -2       0.21847514      -0.00000003      -0.00000002      -0.11365834       0.00000000       0.00000000      -0.28593176      -3.93203020     -11.79609058      -0.17296220      -2.03736170       0.00000000      -0.00000000      -0.00000000      -2.03736170      -0.00000000      -0.00000000      -0.00000000      -5.31377488
O        5.89804529       5.89804529       0.08648110       -2       0.21847514      -0.00000002      -0.00000002      -0.11365834       0.00000000       0.00000000      -0.28593176     -11.79609058     -11.79609058      -0.17296220      -2.03736170       0.00000000      -0.00000000      -0.00000000      -2.03736170      -0.00000000      -0.00000000      -0.00000000      -5.31377488
O        1.96601510       1.96601510       4.06868995       -2       0.21847514      -0.00000003      -0.00000003      -0.11365835       0.00000000       0.00000000      -0.28593176      -3.93203020      -3.93203020      -8.13737990      -2.03736170       0.00000000      -0.00000000       0.00000000      -2.03736170      -0.00000000      -0.00000000      -0.00000000      -5.31377487
O        5.89804529       1.96601510       4.06868995       -2       0.21847514      -0.00000002      -0.00000003      -0.11365834       0.00000000       0.00000000      -0.28593176     -11.79609058      -3.93203020      -8.13737990      -2.03736170      -0.00000000      -0.00000000      -0.00000000      -2.03736170      -0.00000000      -0.00000000      -0.00000000      -5.31377488
O        1.96601510       5.89804529       4.06868995       -2       0.21847514      -0.00000003      -0.00000002      -0.11365834       0.00000000       0.00000000      -0.28593176      -3.93203020     -11.79609058      -8.13737990      -2.03736170      -0.00000000      -0.00000000      -0.00000000      -2.03736170      -0.00000000      -0.00000000      -0.00000000      -5.31377488
O        5.89804529       5.89804529       4.06868995       -2       0.21847514      -0.00000002      -0.00000002      -0.11365834       0.00000000       0.00000000      -0.28593176     -11.79609058     -11.79609058      -8.13737990      -2.03736170      -0.00000000      -0.00000000      -0.00000000      -2.03736170      -0.00000000      -0.00000000      -0.00000000      -5.31377488
Ti       1.96601510       1.96601510       1.93982197        4      -1.46707829      -0.00000003      -0.00000003       0.10127450       0.00000000       0.00000000      -0.13828257       7.86406040       7.86406040       7.75928788       7.03338372      -0.00000000       0.00000001       0.00000000       7.03338372       0.00000001       0.00000001       0.00000001       6.67887399
Ti       5.89804529       1.96601510       1.93982197        4      -1.46707828       0.00000002      -0.00000003       0.10127449       0.00000000       0.00000000      -0.13828257      23.59218116       7.86406040       7.75928788       7.03338370       0.00000000       0.00000000      -0.00000000       7.03338373       0.00000001       0.00000000       0.00000001       6.67887400
Ti       1.96601510       5.89804529       1.93982197        4      -1.46707828      -0.00000003       0.00000002       0.10127449       0.00000000       0.00000000      -0.13828257       7.86406040      23.59218116       7.75928788       7.03338373      -0.00000000       0.00000001       0.00000000       7.03338370       0.00000000       0.00000001       0.00000000       6.67887400
Ti       5.89804529       5.89804529       1.93982197        4      -1.46707828       0.00000002       0.00000002       0.10127449       0.00000000       0.00000000      -0.13828257      23.59218116      23.59218116       7.75928788       7.03338371       0.00000000       0.00000000       0.00000000       7.03338371       0.00000000       0.00000000       0.00000000       6.67887401
Ti       1.96601510       1.96601510       5.92203082        4      -1.46707829      -0.00000003      -0.00000003       0.10127450       0.00000000       0.00000000      -0.13828257       7.86406040       7.86406040      23.68812328       7.03338372      -0.00000000       0.00000001      -0.00000000       7.03338372       0.00000001       0.00000001       0.00000001       6.67887399
Ti       5.89804529       1.96601510       5.92203082        4      -1.46707828       0.00000002      -0.00000003       0.10127449       0.00000000       0.00000000      -0.13828257      23.59218116       7.86406040      23.68812328       7.03338370      -0.00000000       0.00000000       0.00000000       7.03338373       0.00000001       0.00000000       0.00000001       6.67887400
Ti       1.96601510       5.89804529       5.92203082        4      -1.46707828      -0.00000003       0.00000002       0.10127449       0.00000000       0.00000000      -0.13828257       7.86406040      23.59218116      23.68812328       7.03338373      -0.00000000       0.00000001      -0.00000000       7.03338370       0.00000000       0.00000001       0.00000000       6.67887400
Ti       5.89804529       5.89804529       5.92203082        4      -1.46707828       0.00000002       0.00000002       0.10127449       0.00000000       0.00000000      -0.13828257      23.59218116      23.59218116      23.68812328       7.03338371       0.00000000       0.00000000      -0.00000000       7.03338371       0.00000000       0.00000000       0.00000000       6.67887401
