2
Lattice="0.0 2.11043215 2.11043215 2.11043215 0.0 2.11043215 2.11043215 2.11043215 0.0" Properties=species:S:1:pos:R:3:displacements:R:3 energy=-7489.77374240833 free_energy=-7489.77374240833 polarization="0.001698893 3.396857e-06 3.396857e-06" REF_dipole="0.0019934272093756664 3.9857643595906175e-06 3.9857643595906175e-06" pbc="T T T"
Mg       0.00100000       0.00000000       0.00000000       0.00000000       0.00000000       0.00000000
O        2.11043215       2.11043215       2.11043215       0.00000000       0.00000000       0.00000000
2
Lattice="0.0 2.11043215 2.11043215 2.11043215 0.0 2.11043215 2.11043215 2.11043215 0.0" Properties=species:S:1:pos:R:3:displacements:R:3 energy=-7489.77374240922 free_energy=-7489.77374240922 polarization="3.396857e-06 0.001698893 3.396857e-06" REF_dipole="3.985764359590834e-06 0.0019934272093756664 3.985764359590717e-06" pbc="T T T"
Mg       0.00000000       0.00100000       0.00000000      -0.00100000       0.00100000       0.00000000
O        2.11043215       2.11043215       2.11043215       0.00000000       0.00000000       0.00000000
2
Lattice="0.0 2.11043215 2.11043215 2.11043215 0.0 2.11043215 2.11043215 2.11043215 0.0" Properties=species:S:1:pos:R:3:displacements:R:3 energy=-7489.77374240922 free_energy=-7489.77374240922 polarization="3.396857e-06 3.396857e-06 0.001698893" REF_dipole="3.985764359590717e-06 3.985764359590717e-06 0.0019934272093756664" pbc="T T T"
Mg       0.00000000       0.00000000       0.00100000      -0.00100000       0.00000000       0.00100000
O        2.11043215       2.11043215       2.11043215       0.00000000       0.00000000       0.00000000
2
Lattice="0.0 2.11043215 2.11043215 2.11043215 0.0 2.11043215 2.11043215 2.11043215 0.0" Properties=species:S:1:pos:R:3:displacements:R:3 energy=-7489.77374240836 free_energy=-7489.77374240836 polarization="-0.001698885 -3.388358e-06 -3.388358e-06" REF_dipole="-0.0019934178224291815 -3.975791902318527e-06 -3.975791902318527e-06" pbc="T T T"
Mg       0.00000000       0.00000000       0.00000000      -0.00100000       0.00000000       0.00000000
O        2.11143215       2.11043215       2.11043215       0.00100000       0.00000000       0.00000000
2
Lattice="0.0 2.11043215 2.11043215 2.11043215 0.0 2.11043215 2.11043215 2.11043215 0.0" Properties=species:S:1:pos:R:3:displacements:R:3 energy=-7489.77374240926 free_energy=-7489.77374240926 polarization="-3.388358e-06 -0.001698885 -3.388358e-06" REF_dipole="-3.975791902318527e-06 -0.0019934178224291815 -3.975791902318518e-06" pbc="T T T"
Mg       0.00000000       0.00000000       0.00000000      -0.00100000       0.00000000       0.00000000
O        2.11043215       2.11143215       2.11043215       0.00000000       0.00100000       0.00000000
2
Lattice="0.0 2.11043215 2.11043215 2.11043215 0.0 2.11043215 2.11043215 2.11043215 0.0" Properties=species:S:1:pos:R:3:displacements:R:3 energy=-7489.77374240926 free_energy=-7489.77374240926 polarization="-3.388358e-06 -3.388358e-06 -0.001698885" REF_dipole="-3.975791902318518e-06 -3.975791902318518e-06 -0.0019934178224291815" pbc="T T T"
Mg       0.00000000       0.00000000       0.00000000      -0.00100000       0.00000000       0.00000000
O        2.11043215       2.11043215       2.11143215       0.00000000       0.00000000       0.00100000
2
Lattice="0.0 2.11043215 2.11043215 2.11043215 0.0 2.11043215 2.11043215 2.11043215 0.0" Properties=species:S:1:pos:R:3:displacements:R:3 energy=-7489.77374240835 free_energy=-7489.77374240835 polarization="-0.001698885 -3.388358e-06 -3.388358e-06" REF_dipole="-0.0019934178224291815 -3.975791902318527e-06 -3.975791902318527e-06" pbc="T T T"
Mg      -0.00100000       0.00000000       0.00000000      -0.00200000       0.00000000       0.00000000
O        2.11043215       2.11043215       2.11043215       0.00000000       0.00000000       0.00000000
2
Lattice="0.0 2.11043215 2.11043215 2.11043215 0.0 2.11043215 2.11043215 2.11043215 0.0" Properties=species:S:1:pos:R:3:displacements:R:3 energy=-7489.77374240924 free_energy=-7489.77374240924 polarization="-3.388358e-06 -0.001698885 -3.388358e-06" REF_dipole="-3.975791902318527e-06 -0.0019934178224291815 -3.975791902318518e-06" pbc="T T T"
Mg       0.00000000      -0.00100000       0.00000000      -0.00100000      -0.00100000       0.00000000
O        2.11043215       2.11043215       2.11043215       0.00000000       0.00000000       0.00000000
2
Lattice="0.0 2.11043215 2.11043215 2.11043215 0.0 2.11043215 2.11043215 2.11043215 0.0" Properties=species:S:1:pos:R:3:displacements:R:3 energy=-7489.77374240924 free_energy=-7489.77374240924 polarization="-3.388358e-06 -3.388358e-06 -0.001698885" REF_dipole="-3.975791902318518e-06 -3.975791902318518e-06 -0.0019934178224291815" pbc="T T T"
Mg       0.00000000       0.00000000      -0.00100000      -0.00100000       0.00000000      -0.00100000
O        2.11043215       2.11043215       2.11043215       0.00000000       0.00000000       0.00000000
2
Lattice="0.0 2.11043215 2.11043215 2.11043215 0.0 2.11043215 2.11043215 2.11043215 0.0" Properties=species:S:1:pos:R:3:displacements:R:3 energy=-7489.77374240834 free_energy=-7489.77374240834 polarization="0.001698893 3.396857e-06 3.396857e-06" REF_dipole="0.0019934272093756664 3.9857643595906175e-06 3.9857643595906175e-06" pbc="T T T"
Mg       0.00000000       0.00000000       0.00000000      -0.00100000       0.00000000       0.00000000
O        2.10943215       2.11043215       2.11043215      -0.00100000       0.00000000       0.00000000
2
Lattice="0.0 2.11043215 2.11043215 2.11043215 0.0 2.11043215 2.11043215 2.11043215 0.0" Properties=species:S:1:pos:R:3:displacements:R:3 energy=-7489.77374240923 free_energy=-7489.77374240923 polarization="3.396857e-06 0.001698893 3.396857e-06" REF_dipole="3.985764359590834e-06 0.0019934272093756664 3.985764359590717e-06" pbc="T T T"
Mg       0.00000000       0.00000000       0.00000000      -0.00100000       0.00000000       0.00000000
O        2.11043215       2.10943215       2.11043215       0.00000000      -0.00100000       0.00000000
2
Lattice="0.0 2.11043215 2.11043215 2.11043215 0.0 2.11043215 2.11043215 2.11043215 0.0" Properties=species:S:1:pos:R:3:displacements:R:3 energy=-7489.77374240923 free_energy=-7489.77374240923 polarization="3.396857e-06 3.396857e-06 0.001698893" REF_dipole="3.985764359590717e-06 3.985764359590717e-06 0.0019934272093756664" pbc="T T T"
Mg       0.00000000       0.00000000       0.00000000      -0.00100000       0.00000000       0.00000000
O        2.11043215       2.11043215       2.10943215       0.00000000       0.00000000      -0.00100000
2
Lattice="0.0 2.11043215 2.11043215 2.11043215 0.0 2.11043215 2.11043215 2.11043215 0.0" Properties=species:S:1:pos:R:3:displacements:R:3 energy=-7489.77374475002 free_energy=-7489.77374475002 polarization="4.249804e-09 4.249799e-09 4.249793e-09" REF_dipole="4.986585340049988e-09 4.986579473208435e-09 4.986572432998571e-09" pbc="T T T"
Mg       0.00000000       0.00000000       0.00000000      -0.00100000       0.00000000       0.00000000
O        2.11043215       2.11043215       2.11043215       0.00000000       0.00000000       0.00000000
