5
Lattice="3.97755572 0.0 0.0 0.0 3.97755572 0.0 0.0 0.0 3.97755572" Properties=species:S:1:pos:R:3:displacements:R:3 energy=-254466.760551317 free_energy=-254466.760551317 polarization="1.500607e-09 1.50061e-09 1.500623e-09" REF_dipole="5.893943404387371e-09 5.893955187505946e-09 5.8940062476864305e-09" pbc="T T T"
Ba       1.98877786       1.98877786       1.98877786       0.00000000       0.00000000       0.00000000
Ti       0.00000000       0.00000000       0.00000000       0.00000000       0.00000000       0.00000000
O        0.00000000       0.00000000       1.98877786       0.00000000       0.00000000       0.00000000
O        0.00000000       1.98877786       0.00000000       0.00000000       0.00000000       0.00000000
O        1.98877786       0.00000000       0.00000000       0.00000000       0.00000000       0.00000000
5
Lattice="3.97755572 0.0 0.0 0.0 3.97755572 0.0 0.0 0.0 3.97755572" Properties=species:S:1:pos:R:3:displacements:R:3 energy=-254466.760548417 free_energy=-254466.760548417 polarization="0.000703523194 1.503959e-09 1.503949e-09" REF_dipole="0.0027632324046934593 5.907109075540116e-09 5.907069798478205e-09" pbc="T T T"
Ba       1.98977786       1.98877786       1.98877786       0.00100000       0.00000000       0.00000000
Ti       0.00000000       0.00000000       0.00000000       0.00000000       0.00000000       0.00000000
O        0.00000000       0.00000000       1.98877786       0.00000000       0.00000000       0.00000000
O        0.00000000       1.98877786       0.00000000       0.00000000       0.00000000       0.00000000
O        1.98877786       0.00000000       0.00000000       0.00000000       0.00000000       0.00000000
5
Lattice="3.97755572 0.0 0.0 0.0 3.97755572 0.0 0.0 0.0 3.97755572" Properties=species:S:1:pos:R:3:displacements:R:3 energy=-254466.760548415 free_energy=-254466.760548415 polarization="1.503962e-09 0.000703523204 1.503939e-09" REF_dipole="5.90712085865869e-09 0.002763232443970521 5.9070305214162935e-09" pbc="T T T"
Ba       1.98877786       1.98977786       1.98877786       0.00000000       0.00100000       0.00000000
Ti       0.00000000       0.00000000       0.00000000       0.00000000       0.00000000       0.00000000
O        0.00000000       0.00000000       1.98877786       0.00000000       0.00000000       0.00000000
O        0.00000000       1.98877786       0.00000000       0.00000000       0.00000000       0.00000000
O        1.98877786       0.00000000       0.00000000       0.00000000       0.00000000       0.00000000
5
Lattice="3.97755572 0.0 0.0 0.0 3.97755572 0.0 0.0 0.0 3.97755572" Properties=species:S:1:pos:R:3:displacements:R:3 energy=-254466.760548415 free_energy=-254466.760548415 polarization="1.503959e-09 1.503967e-09 0.000703523208" REF_dipole="5.907109075540116e-09 5.907140497189646e-09 0.0027632324596813455" pbc="T T T"
Ba       1.98877786       1.98877786       1.98977786       0.00000000       0.00000000       0.00100000
Ti       0.00000000       0.00000000       0.00000000       0.00000000       0.00000000       0.00000000
O        0.00000000       0.00000000       1.98877786       0.00000000       0.00000000       0.00000000
O        0.00000000       1.98877786       0.00000000       0.00000000       0.00000000       0.00000000
O        1.98877786       0.00000000       0.00000000       0.00000000       0.00000000       0.00000000
5
Lattice="3.97755572 0.0 0.0 0.0 3.97755572 0.0 0.0 0.0 3.97755572" Properties=species:S:1:pos:R:3:displacements:R:3 energy=-254466.760552428 free_energy=-254466.760552428 polarization="0.001788865 1.503956e-09 1.503942e-09" REF_dipole="0.007026136135636723 5.907097292421543e-09 5.907042304534868e-09" pbc="T T T"
Ba       1.98877786       1.98877786       1.98877786       0.00000000       0.00000000       0.00000000
Ti       0.00100000       0.00000000       0.00000000       0.00100000       0.00000000       0.00000000
O        0.00000000       0.00000000       1.98877786       0.00000000       0.00000000       0.00000000
O        0.00000000       1.98877786       0.00000000       0.00000000       0.00000000       0.00000000
O        1.98877786       0.00000000       0.00000000       0.00000000       0.00000000       0.00000000
5
Lattice="3.97755572 0.0 0.0 0.0 3.97755572 0.0 0.0 0.0 3.97755572" Properties=species:S:1:pos:R:3:displacements:R:3 energy=-254466.760552425 free_energy=-254466.760552425 polarization="1.503957e-09 0.001788865 1.503953e-09" REF_dipole="5.907101220127733e-09 0.007026136135636723 5.90708550930297e-09" pbc="T T T"
Ba       1.98877786       1.98877786       1.98877786       0.00000000       0.00000000       0.00000000
Ti       0.00000000       0.00100000       0.00000000       0.00000000       0.00100000       0.00000000
O        0.00000000       0.00000000       1.98877786       0.00000000       0.00000000       0.00000000
O        0.00000000       1.98877786       0.00000000       0.00000000       0.00000000       0.00000000
O        1.98877786       0.00000000       0.00000000       0.00000000       0.00000000       0.00000000
5
Lattice="3.97755572 0.0 0.0 0.0 3.97755572 0.0 0.0 0.0 3.97755572" Properties=species:S:1:pos:R:3:displacements:R:3 energy=-254466.760552425 free_energy=-254466.760552425 polarization="1.50397e-09 1.503949e-09 0.001788865" REF_dipole="5.907152280308218e-09 5.907069798478205e-09 0.007026136135636723" pbc="T T T"
Ba       1.98877786       1.98877786       1.98877786       0.00000000       0.00000000       0.00000000
Ti       0.00000000       0.00000000       0.00100000       0.00000000       0.00000000       0.00100000
O        0.00000000       0.00000000       1.98877786       0.00000000       0.00000000       0.00000000
O        0.00000000       1.98877786       0.00000000       0.00000000       0.00000000       0.00000000
O        1.98877786       0.00000000       0.00000000       0.00000000       0.00000000       0.00000000
5
Lattice="3.97755572 0.0 0.0 0.0 3.97755572 0.0 0.0 0.0 3.97755572" Properties=species:S:1:pos:R:3:displacements:R:3 energy=-254466.760548995 free_energy=-254466.760548995 polarization="-0.000518561271 1.503975e-09 1.50397e-09" REF_dipole="-0.002036756314598814 5.907171918839175e-09 5.907152280308218e-09" pbc="T T T"
Ba       1.98877786       1.98877786       1.98877786       0.00000000       0.00000000       0.00000000
Ti       0.00000000       0.00000000       0.00000000       0.00000000       0.00000000       0.00000000
O        0.00100000       0.00000000       1.98877786       0.00100000       0.00000000       0.00000000
O        0.00000000       1.98877786       0.00000000       0.00000000       0.00000000       0.00000000
O        1.98877786       0.00000000       0.00000000       0.00000000       0.00000000       0.00000000
5
Lattice="3.97755572 0.0 0.0 0.0 3.97755572 0.0 0.0 0.0 3.97755572" Properties=species:S:1:pos:R:3:displacements:R:3 energy=-254466.760548995 free_energy=-254466.760548995 polarization="1.503965e-09 -0.00051856128 1.503973e-09" REF_dipole="5.9071326417772635e-09 -0.0020367563499481696 5.907164063426793e-09" pbc="T T T"
Ba       1.98877786       1.98877786       1.98877786       0.00000000       0.00000000       0.00000000
Ti       0.00000000       0.00000000       0.00000000       0.00000000       0.00000000       0.00000000
O        0.00000000       0.00100000       1.98877786       0.00000000       0.00100000       0.00000000
O        0.00000000       1.98877786       0.00000000       0.00000000       0.00000000       0.00000000
O        1.98877786       0.00000000       0.00000000       0.00000000       0.00000000       0.00000000
5
Lattice="3.97755572 0.0 0.0 0.0 3.97755572 0.0 0.0 0.0 3.97755572" Properties=species:S:1:pos:R:3:displacements:R:3 energy=-254466.760548872 free_energy=-254466.760548872 polarization="1.503974e-09 1.50396e-09 -0.00145526" REF_dipole="5.907167991132984e-09 5.9071130032463075e-09 -0.005715833711737162" pbc="T T T"
Ba       1.98877786       1.98877786       1.98877786       0.00000000       0.00000000       0.00000000
Ti       0.00000000       0.00000000       0.00000000       0.00000000       0.00000000       0.00000000
O        0.00000000       0.00000000       1.98977786       0.00000000       0.00000000       0.00100000
O        0.00000000       1.98877786       0.00000000       0.00000000       0.00000000       0.00000000
O        1.98877786       0.00000000       0.00000000       0.00000000       0.00000000       0.00000000
5
Lattice="3.97755572 0.0 0.0 0.0 3.97755572 0.0 0.0 0.0 3.97755572" Properties=species:S:1:pos:R:3:displacements:R:3 energy=-254466.760548994 free_energy=-254466.760548994 polarization="-0.000518561265 1.503973e-09 1.503973e-09" REF_dipole="-0.0020367562910325768 5.907164063426793e-09 5.907164063426793e-09" pbc="T T T"
Ba       1.98877786       1.98877786       1.98877786       0.00000000       0.00000000       0.00000000
Ti       0.00000000       0.00000000       0.00000000       0.00000000       0.00000000       0.00000000
O        0.00000000       0.00000000       1.98877786       0.00000000       0.00000000       0.00000000
O        0.00100000       1.98877786       0.00000000       0.00100000       0.00000000       0.00000000
O        1.98877786       0.00000000       0.00000000       0.00000000       0.00000000       0.00000000
5
Lattice="3.97755572 0.0 0.0 0.0 3.97755572 0.0 0.0 0.0 3.97755572" Properties=species:S:1:pos:R:3:displacements:R:3 energy=-254466.76054887 free_energy=-254466.76054887 polarization="1.503971e-09 -0.00145526 1.503972e-09" REF_dipole="5.90715620801441e-09 -0.005715833711737162 5.907160135720601e-09" pbc="T T T"
Ba       1.98877786       1.98877786       1.98877786       0.00000000       0.00000000       0.00000000
Ti       0.00000000       0.00000000       0.00000000       0.00000000       0.00000000       0.00000000
O        0.00000000       0.00000000       1.98877786       0.00000000       0.00000000       0.00000000
O        0.00000000       1.98977786       0.00000000       0.00000000       0.00100000       0.00000000
O        1.98877786       0.00000000       0.00000000       0.00000000       0.00000000       0.00000000
5
Lattice="3.97755572 0.0 0.0 0.0 3.97755572 0.0 0.0 0.0 3.97755572" Properties=species:S:1:pos:R:3:displacements:R:3 energy=-254466.760548995 free_energy=-254466.760548995 polarization="1.50398e-09 1.503958e-09 -0.000518561286" REF_dipole="5.907191557370131e-09 5.907105147833925e-09 -0.002036756373514407" pbc="T T T"
Ba       1.98877786       1.98877786       1.98877786       0.00000000       0.00000000       0.00000000
Ti       0.00000000       0.00000000       0.00000000       0.00000000       0.00000000       0.00000000
O        0.00000000       0.00000000       1.98877786       0.00000000       0.00000000       0.00000000
O        0.00000000       1.98877786       0.00100000       0.00000000       0.00000000       0.00100000
O        1.98877786       0.00000000       0.00000000       0.00000000       0.00000000       0.00000000
5
Lattice="3.97755572 0.0 0.0 0.0 3.97755572 0.0 0.0 0.0 3.97755572" Properties=species:S:1:pos:R:3:displacements:R:3 energy=-254466.760548873 free_energy=-254466.760548873 polarization="-0.00145526 1.503983e-09 1.503967e-09" REF_dipole="-0.005715833711737162 5.907203340488703e-09 5.907140497189646e-09" pbc="T T T"
Ba       1.98877786       1.98877786       1.98877786       0.00000000       0.00000000       0.00000000
Ti       0.00000000       0.00000000       0.00000000       0.00000000       0.00000000       0.00000000
O        0.00000000       0.00000000       1.98877786       0.00000000       0.00000000       0.00000000
O        0.00000000       1.98877786       0.00000000       0.00000000       0.00000000       0.00000000
O        1.98977786       0.00000000       0.00000000       0.00100000       0.00000000       0.00000000
5
Lattice="3.97755572 0.0 0.0 0.0 3.97755572 0.0 0.0 0.0 3.97755572" Properties=species:S:1:pos:R:3:displacements:R:3 energy=-254466.760548996 free_energy=-254466.760548996 polarization="1.503967e-09 -0.00051856127 1.503964e-09" REF_dipole="5.907140497189646e-09 -0.0020367563106711076 5.907128714071072e-09" pbc="T T T"
Ba       1.98877786       1.98877786       1.98877786       0.00000000       0.00000000       0.00000000
Ti       0.00000000       0.00000000       0.00000000       0.00000000       0.00000000       0.00000000
O        0.00000000       0.00000000       1.98877786       0.00000000       0.00000000       0.00000000
O        0.00000000       1.98877786       0.00000000       0.00000000       0.00000000       0.00000000
O        1.98877786       0.00100000       0.00000000       0.00000000       0.00100000       0.00000000
5
Lattice="3.97755572 0.0 0.0 0.0 3.97755572 0.0 0.0 0.0 3.97755572" Properties=species:S:1:pos:R:3:displacements:R:3 energy=-254466.760548996 free_energy=-254466.760548996 polarization="1.503974e-09 1.503984e-09 -0.000518561276" REF_dipole="5.907167991132984e-09 5.907207268194895e-09 -0.0020367563342373455" pbc="T T T"
Ba       1.98877786       1.98877786       1.98877786       0.00000000       0.00000000       0.00000000
Ti       0.00000000       0.00000000       0.00000000       0.00000000       0.00000000       0.00000000
O        0.00000000       0.00000000       1.98877786       0.00000000       0.00000000       0.00000000
O        0.00000000       1.98877786       0.00000000       0.00000000       0.00000000       0.00000000
O        1.98877786       0.00000000       0.00100000       0.00000000       0.00000000       0.00100000
5
Lattice="3.97755572 0.0 0.0 0.0 3.97755572 0.0 0.0 0.0 3.97755572" Properties=species:S:1:pos:R:3:displacements:R:3 energy=-254466.760548414 free_energy=-254466.760548414 polarization="-0.000703520191 1.503966e-09 1.503947e-09" REF_dipole="-0.0027632206097917673 5.907136569483455e-09 5.907061943065823e-09" pbc="T T T"
Ba       1.98777786       1.98877786       1.98877786      -0.00100000       0.00000000       0.00000000
Ti       0.00000000       0.00000000       0.00000000       0.00000000       0.00000000       0.00000000
O        0.00000000       0.00000000       1.98877786       0.00000000       0.00000000       0.00000000
O        0.00000000       1.98877786       0.00000000       0.00000000       0.00000000       0.00000000
O        1.98877786       0.00000000       0.00000000       0.00000000       0.00000000       0.00000000
5
Lattice="3.97755572 0.0 0.0 0.0 3.97755572 0.0 0.0 0.0 3.97755572" Properties=species:S:1:pos:R:3:displacements:R:3 energy=-254466.760548411 free_energy=-254466.760548411 polarization="1.503968e-09 -0.000703520201 1.503951e-09" REF_dipole="5.907144424895837e-09 -0.002763220649068829 5.907077653890587e-09" pbc="T T T"
Ba       1.98877786       1.98777786       1.98877786       0.00000000      -0.00100000       0.00000000
Ti       0.00000000       0.00000000       0.00000000       0.00000000       0.00000000       0.00000000
O        0.00000000       0.00000000       1.98877786       0.00000000       0.00000000       0.00000000
O        0.00000000       1.98877786       0.00000000       0.00000000       0.00000000       0.00000000
O        1.98877786       0.00000000       0.00000000       0.00000000       0.00000000       0.00000000
5
Lattice="3.97755572 0.0 0.0 0.0 3.97755572 0.0 0.0 0.0 3.97755572" Properties=species:S:1:pos:R:3:displacements:R:3 energy=-254466.760548411 free_energy=-254466.760548411 polarization="1.503967e-09 1.503942e-09 -0.000703520205" REF_dipole="5.907140497189646e-09 5.907042304534868e-09 -0.002763220664779653" pbc="T T T"
Ba       1.98877786       1.98877786       1.98777786       0.00000000       0.00000000      -0.00100000
Ti       0.00000000       0.00000000       0.00000000       0.00000000       0.00000000       0.00000000
O        0.00000000       0.00000000       1.98877786       0.00000000       0.00000000       0.00000000
O        0.00000000       1.98877786       0.00000000       0.00000000       0.00000000       0.00000000
O        1.98877786       0.00000000       0.00000000       0.00000000       0.00000000       0.00000000
5
Lattice="3.97755572 0.0 0.0 0.0 3.97755572 0.0 0.0 0.0 3.97755572" Properties=species:S:1:pos:R:3:displacements:R:3 energy=-254466.760552428 free_energy=-254466.760552428 polarization="-0.001788862 1.503965e-09 1.503949e-09" REF_dipole="-0.007026124352518149 5.9071326417772635e-09 5.907069798478205e-09" pbc="T T T"
Ba       1.98877786       1.98877786       1.98877786       0.00000000       0.00000000       0.00000000
Ti      -0.00100000       0.00000000       0.00000000      -0.00100000       0.00000000       0.00000000
O        0.00000000       0.00000000       1.98877786       0.00000000       0.00000000       0.00000000
O        0.00000000       1.98877786       0.00000000       0.00000000       0.00000000       0.00000000
O        1.98877786       0.00000000       0.00000000       0.00000000       0.00000000       0.00000000
5
Lattice="3.97755572 0.0 0.0 0.0 3.97755572 0.0 0.0 0.0 3.97755572" Properties=species:S:1:pos:R:3:displacements:R:3 energy=-254466.760552424 free_energy=-254466.760552424 polarization="1.503945e-09 -0.001788862 1.503941e-09" REF_dipole="5.90705408765344e-09 -0.007026124352518149 5.907038376828676e-09" pbc="T T T"
Ba       1.98877786       1.98877786       1.98877786       0.00000000       0.00000000       0.00000000
Ti       0.00000000      -0.00100000       0.00000000       0.00000000      -0.00100000       0.00000000
O        0.00000000       0.00000000       1.98877786       0.00000000       0.00000000       0.00000000
O        0.00000000       1.98877786       0.00000000       0.00000000       0.00000000       0.00000000
O        1.98877786       0.00000000       0.00000000       0.00000000       0.00000000       0.00000000
5
Lattice="3.97755572 0.0 0.0 0.0 3.97755572 0.0 0.0 0.0 3.97755572" Properties=species:S:1:pos:R:3:displacements:R:3 energy=-254466.760552425 free_energy=-254466.760552425 polarization="1.503957e-09 1.503964e-09 -0.001788862" REF_dipole="5.907101220127733e-09 5.907128714071072e-09 -0.007026124352518149" pbc="T T T"
Ba       1.98877786       1.98877786       1.98877786       0.00000000       0.00000000       0.00000000
Ti       0.00000000       0.00000000      -0.00100000       0.00000000       0.00000000      -0.00100000
O        0.00000000       0.00000000       1.98877786       0.00000000       0.00000000       0.00000000
O        0.00000000       1.98877786       0.00000000       0.00000000       0.00000000       0.00000000
O        1.98877786       0.00000000       0.00000000       0.00000000       0.00000000       0.00000000
5
Lattice="3.97755572 0.0 0.0 0.0 3.97755572 0.0 0.0 0.0 3.97755572" Properties=species:S:1:pos:R:3:displacements:R:3 energy=-254466.760548995 free_energy=-254466.760548995 polarization="0.000518564274 1.503953e-09 1.50398e-09" REF_dipole="0.0020367681095005063 5.90708550930297e-09 5.907191557370131e-09" pbc="T T T"
Ba       1.98877786       1.98877786       1.98877786       0.00000000       0.00000000       0.00000000
Ti       0.00000000       0.00000000       0.00000000       0.00000000       0.00000000       0.00000000
O       -0.00100000       0.00000000       1.98877786      -0.00100000       0.00000000       0.00000000
O        0.00000000       1.98877786       0.00000000       0.00000000       0.00000000       0.00000000
O        1.98877786       0.00000000       0.00000000       0.00000000       0.00000000       0.00000000
5
Lattice="3.97755572 0.0 0.0 0.0 3.97755572 0.0 0.0 0.0 3.97755572" Properties=species:S:1:pos:R:3:displacements:R:3 energy=-254466.760548995 free_energy=-254466.760548995 polarization="1.503968e-09 0.000518564283 1.503976e-09" REF_dipole="5.907144424895837e-09 0.0020367681448498617 5.907175846545366e-09" pbc="T T T"
Ba       1.98877786       1.98877786       1.98877786       0.00000000       0.00000000       0.00000000
Ti       0.00000000       0.00000000       0.00000000       0.00000000       0.00000000       0.00000000
O        0.00000000      -0.00100000       1.98877786       0.00000000      -0.00100000       0.00000000
O        0.00000000       1.98877786       0.00000000       0.00000000       0.00000000       0.00000000
O        1.98877786       0.00000000       0.00000000       0.00000000       0.00000000       0.00000000
5
Lattice="3.97755572 0.0 0.0 0.0 3.97755572 0.0 0.0 0.0 3.97755572" Properties=species:S:1:pos:R:3:displacements:R:3 energy=-254466.760548872 free_energy=-254466.760548872 polarization="1.50398e-09 1.503987e-09 0.001455263" REF_dipole="5.907191557370131e-09 5.907219051313469e-09 0.005715845494855736" pbc="T T T"
Ba       1.98877786       1.98877786       1.98877786       0.00000000       0.00000000       0.00000000
Ti       0.00000000       0.00000000       0.00000000       0.00000000       0.00000000       0.00000000
O        0.00000000       0.00000000       1.98777786       0.00000000       0.00000000      -0.00100000
O        0.00000000       1.98877786       0.00000000       0.00000000       0.00000000       0.00000000
O        1.98877786       0.00000000       0.00000000       0.00000000       0.00000000       0.00000000
5
Lattice="3.97755572 0.0 0.0 0.0 3.97755572 0.0 0.0 0.0 3.97755572" Properties=species:S:1:pos:R:3:displacements:R:3 energy=-254466.760548995 free_energy=-254466.760548995 polarization="0.000518564268 1.503955e-09 1.503962e-09" REF_dipole="0.0020367680859342692 5.9070933647153516e-09 5.90712085865869e-09" pbc="T T T"
Ba       1.98877786       1.98877786       1.98877786       0.00000000       0.00000000       0.00000000
Ti       0.00000000       0.00000000       0.00000000       0.00000000       0.00000000       0.00000000
O        0.00000000       0.00000000       1.98877786       0.00000000       0.00000000       0.00000000
O       -0.00100000       1.98877786       0.00000000      -0.00100000       0.00000000       0.00000000
O        1.98877786       0.00000000       0.00000000       0.00000000       0.00000000       0.00000000
5
Lattice="3.97755572 0.0 0.0 0.0 3.97755572 0.0 0.0 0.0 3.97755572" Properties=species:S:1:pos:R:3:displacements:R:3 energy=-254466.76054887 free_energy=-254466.76054887 polarization="1.503974e-09 0.001455263 1.503953e-09" REF_dipole="5.907167991132984e-09 0.005715845494855736 5.90708550930297e-09" pbc="T T T"
Ba       1.98877786       1.98877786       1.98877786       0.00000000       0.00000000       0.00000000
Ti       0.00000000       0.00000000       0.00000000       0.00000000       0.00000000       0.00000000
O        0.00000000       0.00000000       1.98877786       0.00000000       0.00000000       0.00000000
O        0.00000000       1.98777786       0.00000000       0.00000000      -0.00100000       0.00000000
O        1.98877786       0.00000000       0.00000000       0.00000000       0.00000000       0.00000000
5
Lattice="3.97755572 0.0 0.0 0.0 3.97755572 0.0 0.0 0.0 3.97755572" Properties=species:S:1:pos:R:3:displacements:R:3 energy=-254466.760548995 free_energy=-254466.760548995 polarization="1.50396e-09 1.503961e-09 0.000518564288" REF_dipole="5.9071130032463075e-09 5.907116930952499e-09 0.0020367681644883925" pbc="T T T"
Ba       1.98877786       1.98877786       1.98877786       0.00000000       0.00000000       0.00000000
Ti       0.00000000       0.00000000       0.00000000       0.00000000       0.00000000       0.00000000
O        0.00000000       0.00000000       1.98877786       0.00000000       0.00000000       0.00000000
O        0.00000000       1.98877786      -0.00100000       0.00000000       0.00000000      -0.00100000
O        1.98877786       0.00000000       0.00000000       0.00000000       0.00000000       0.00000000
5
Lattice="3.97755572 0.0 0.0 0.0 3.97755572 0.0 0.0 0.0 3.97755572" Properties=species:S:1:pos:R:3:displacements:R:3 energy=-254466.760548873 free_energy=-254466.760548873 polarization="0.001455263 1.503968e-09 1.503992e-09" REF_dipole="0.005715845494855736 5.907144424895837e-09 5.907238689844424e-09" pbc="T T T"
Ba       1.98877786       1.98877786       1.98877786       0.00000000       0.00000000       0.00000000
Ti       0.00000000       0.00000000       0.00000000       0.00000000       0.00000000       0.00000000
O        0.00000000       0.00000000       1.98877786       0.00000000       0.00000000       0.00000000
O        0.00000000       1.98877786       0.00000000       0.00000000       0.00000000       0.00000000
O        1.98777786       0.00000000       0.00000000      -0.00100000       0.00000000       0.00000000
5
Lattice="3.97755572 0.0 0.0 0.0 3.97755572 0.0 0.0 0.0 3.97755572" Properties=species:S:1:pos:R:3:displacements:R:3 energy=-254466.760548996 free_energy=-254466.760548996 polarization="1.50397e-09 0.000518564273 1.503979e-09" REF_dipole="5.907152280308218e-09 0.0020367681055728 5.907187629663939e-09" pbc="T T T"
Ba       1.98877786       1.98877786       1.98877786       0.00000000       0.00000000       0.00000000
Ti       0.00000000       0.00000000       0.00000000       0.00000000       0.00000000       0.00000000
O        0.00000000       0.00000000       1.98877786       0.00000000       0.00000000       0.00000000
O        0.00000000       1.98877786       0.00000000       0.00000000       0.00000000       0.00000000
O        1.98877786      -0.00100000       0.00000000       0.00000000      -0.00100000       0.00000000
5
Lattice="3.97755572 0.0 0.0 0.0 3.97755572 0.0 0.0 0.0 3.97755572" Properties=species:S:1:pos:R:3:displacements:R:3 energy=-254466.760548997 free_energy=-254466.760548997 polarization="1.503958e-09 1.503958e-09 0.000518564279" REF_dipole="5.907105147833925e-09 5.907105147833925e-09 0.002036768129139037" pbc="T T T"
Ba       1.98877786       1.98877786       1.98877786       0.00000000       0.00000000       0.00000000
Ti       0.00000000       0.00000000       0.00000000       0.00000000       0.00000000       0.00000000
O        0.00000000       0.00000000       1.98877786       0.00000000       0.00000000       0.00000000
O        0.00000000       1.98877786       0.00000000       0.00000000       0.00000000       0.00000000
O        1.98877786       0.00000000      -0.00100000       0.00000000       0.00000000      -0.00100000
