5
Lattice="3.956890824831104 0.0 0.0 0.0 4.015338059204685 0.0 0.0 0.0 4.015338059204685" Properties=species:S:1:pos:R:3:oxn:R:1:MACE_forces:R:3:MACE_atomic_dipoles:R:3 cell_displacement="_JSON [[0.0, 0.0, 0.0], [0.0, 0.0, 0.0], [0.0, 0.0, 0.0]]" MACE_energy=-3701.921367913849 MACE_stress="_JSON [[0.00016521047148521968, -2.7618931863766233e-11, -2.761892206459124e-11], [-2.7618931863766233e-11, 0.0004599839885842469, -0.0025977827408437655], [-2.761892206459124e-11, -0.0025977827408437655, 0.00045998398858428037]]" MACE_dipole="3.9568908270202168 3.0652827540907404 3.0652827540907404" pbc="T T T"
Ba       1.97844541       2.00766903       2.00766903       4.00000000       0.00000001      -0.00078935      -0.00078935      -0.00000000      -0.02410197      -0.02410197
Ti       0.00000000      -0.05290719      -0.05290719       2.00000000      -0.00000000       0.00758857       0.00758857       0.00000001      -0.28901482      -0.28901482
O        0.00000000       0.04970014       2.09535769      -2.00000000      -0.00000001       0.00261951      -0.01204778       0.00000000      -0.00659088      -0.12445597
O        0.00000000       2.09535769       0.04970014      -2.00000000      -0.00000001      -0.01204778       0.00261951       0.00000000      -0.12445597      -0.00659088
O        1.97844541       0.05962402       0.05962402      -2.00000000       0.00000001       0.00262904       0.00262904       0.00000000      -0.00605165      -0.00605165
5
Lattice="3.9578908248311038 0.0 0.0 0.0 4.015338059204685 0.0 0.0 0.0 4.015338059204685" Properties=species:S:1:pos:R:3:oxn:R:1:MACE_forces:R:3:MACE_atomic_dipoles:R:3 cell_displacement="_JSON [[0.001, 0.0, 0.0], [0.0, 0.0, 0.0], [0.0, 0.0, 0.0]]" MACE_energy=-3701.9213611232663 MACE_stress="_JSON [[0.0006769677134570545, -2.7427506260344923e-11, -2.7427489213774306e-11], [-2.7427506260344923e-11, 0.0006445519080624245, -0.002597399535218913], [-2.7427489213774306e-11, -0.002597399535218913, 0.0006445519080623751]]" MACE_dipole="3.9578908270161905 3.0650240179373385 3.065024017937339" pbc="T T T"
Ba       1.97894541       2.00766903       2.00766903       4.00000000       0.00000001      -0.00085000      -0.00085000      -0.00000000      -0.02411127      -0.02411127
Ti       0.00000000      -0.05290719      -0.05290719       2.00000000      -0.00000000       0.00752412       0.00752412       0.00000001      -0.28922456      -0.28922456
O        0.00000000       0.04970014       2.09535769      -2.00000000      -0.00000001       0.00282257      -0.01152527       0.00000000      -0.00658601      -0.12450291
O        0.00000000       2.09535769       0.04970014      -2.00000000      -0.00000001      -0.01152527       0.00282257       0.00000000      -0.12450291      -0.00658601
O        1.97894541       0.05962402       0.05962402      -2.00000000       0.00000001       0.00202858       0.00202858       0.00000000      -0.00604927      -0.00604927
5
Lattice="3.956890824831104 0.0 0.0 0.001 4.015338059204685 0.0 0.0 0.0 4.015338059204685" Properties=species:S:1:pos:R:3:oxn:R:1:MACE_forces:R:3:MACE_atomic_dipoles:R:3 cell_displacement="_JSON [[0.0, 0.0, 0.0], [0.001, 0.0, 0.0], [0.0, 0.0, 0.0]]" MACE_energy=-3701.9213664279087 MACE_stress="_JSON [[0.00016519529784519277, 0.00018704907385834913, -6.234212506564212e-07], [0.00018704907385834913, 0.0004599164834444655, -0.0025977825621101057], [-6.234212506564212e-07, -0.0025977825621101057, 0.00045996002651869087]]" MACE_dipole="3.9575352026926196 3.0652828241545307 3.0652827598413315" pbc="T T T"
Ba       1.97894541       2.00766903       2.00766903       4.00000000      -0.00006408      -0.00078911      -0.00078938      -0.00001717      -0.02410197      -0.02410197
Ti      -0.00001318      -0.05290719      -0.05290719       2.00000000      -0.00040130       0.00758796       0.00758871      -0.00015092      -0.28901476      -0.28901483
O        0.00001238       0.04970014       2.09535769      -2.00000000       0.00021536       0.00261936      -0.01204780       0.00000169      -0.00659088      -0.12445595
O        0.00052184       2.09535769       0.04970014      -2.00000000       0.00036756      -0.01204724       0.00261943      -0.00004396      -0.12445598      -0.00659088
O        1.97846026       0.05962402       0.05962402      -2.00000000      -0.00011754       0.00262903       0.00262904      -0.00002076      -0.00605163      -0.00605165
5
Lattice="3.956890824831104 0.0 0.0 0.0 4.016338059204685 0.0 0.0 0.0 4.015338059204685" Properties=species:S:1:pos:R:3:oxn:R:1:MACE_forces:R:3:MACE_atomic_dipoles:R:3 cell_displacement="_JSON [[0.0, 0.0, 0.0], [0.0, 0.001, 0.0], [0.0, 0.0, 0.0]]" MACE_energy=-3701.9213565627247 MACE_stress="_JSON [[0.00034716486033719825, -2.752409698731386e-11, -2.7614226487535673e-11], [-2.752409698731386e-11, 0.0009687093858050055, -0.0026044511865633466], [-2.7614226487535673e-11, -0.0026044511865633466, 0.000644062081213385]]" MACE_dipole="3.9568908270245666 3.066393924330538 3.0650389229021218" pbc="T T T"
Ba       1.97844541       2.00816903       2.00766903       4.00000000       0.00000001      -0.00107608      -0.00087404      -0.00000000      -0.02410967      -0.02411022
Ti       0.00000000      -0.05292037      -0.05290719       2.00000000      -0.00000000       0.00352560       0.00740144       0.00000001      -0.28874338      -0.28920885
O        0.00000000       0.04971252       2.09535769      -2.00000000      -0.00000001       0.00254480      -0.01147756       0.00000000      -0.00656652      -0.12450660
O        0.00000000       2.09587953       0.04970014      -2.00000000      -0.00000001      -0.00755109       0.00208335       0.00000000      -0.12453424      -0.00659038
O        1.97844541       0.05963887       0.05962402      -2.00000000       0.00000001       0.00255677       0.00286681       0.00000000      -0.00602581      -0.00604307
5
Lattice="3.956890824831104 0.0 0.0 0.0 4.015338059204685 0.0 0.0 0.001 4.015338059204685" Properties=species:S:1:pos:R:3:oxn:R:1:MACE_forces:R:3:MACE_atomic_dipoles:R:3 cell_displacement="_JSON [[0.0, 0.0, 0.0], [0.0, 0.0, 0.0], [0.0, 0.001, 0.0]]" MACE_energy=-3701.921407749339 MACE_stress="_JSON [[0.00016492090432213086, -2.765599036293337e-11, -2.7649260949956723e-11], [-2.765599036293337e-11, 0.00045199836499813356, -0.0024166819932100536], [-2.7649260949956723e-11, -0.0024166819932100536, 0.000453244103412014]]" MACE_dipole="3.956890827019976 3.065965162091515 3.0652018977606934" pbc="T T T"
Ba       1.97844541       2.00816903       2.00766903       4.00000000       0.00000001      -0.00086746      -0.00086726      -0.00000000      -0.02411911      -0.02411310
Ti       0.00000000      -0.05292037      -0.05290719       2.00000000      -0.00000000       0.00730776       0.00730543       0.00000001      -0.28914470      -0.28907263
O        0.00000000       0.05022198       2.09535769      -2.00000000      -0.00000001       0.00300260      -0.01227195       0.00000000      -0.00663773      -0.12445835
O        0.00000000       2.09537007       0.04970014      -2.00000000      -0.00000001      -0.01227171       0.00300572       0.00000000      -0.12446000      -0.00660673
O        1.97844541       0.05963887       0.05962402      -2.00000000       0.00000001       0.00282881       0.00282807       0.00000000      -0.00604684      -0.00604533
5
Lattice="3.955890824831104 0.0 0.0 0.0 4.015338059204685 0.0 0.0 0.0 4.015338059204685" Properties=species:S:1:pos:R:3:oxn:R:1:MACE_forces:R:3:MACE_atomic_dipoles:R:3 cell_displacement="_JSON [[-0.001, -0.0, -0.0], [-0.0, -0.0, -0.0], [-0.0, -0.0, -0.0]]" MACE_energy=-3701.921366445061 MACE_stress="_JSON [[-0.00034758174439127347, -2.78109862532045e-11, -2.781101971636138e-11], [-2.78109862532045e-11, 0.0002751378469629361, -0.002598167857027213], [-2.781101971636138e-11, -0.002598167857027213, 0.00027513784696280523]]" MACE_dipole="3.9558908270242576 3.0655417980429935 3.0655417980429935" pbc="T T T"
Ba       1.97794541       2.00766903       2.00766903       4.00000000       0.00000001      -0.00072831      -0.00072831      -0.00000000      -0.02409266      -0.02409266
Ti       0.00000000      -0.05290719      -0.05290719       2.00000000      -0.00000000       0.00765149       0.00765149       0.00000001      -0.28880482      -0.28880482
O        0.00000000       0.04970014       2.09535769      -2.00000000      -0.00000001       0.00241610      -0.01257094       0.00000000      -0.00659576      -0.12440898
O        0.00000000       2.09535769       0.04970014      -2.00000000      -0.00000001      -0.01257094       0.00241610       0.00000000      -0.12440898      -0.00659576
O        1.97794541       0.05962402       0.05962402      -2.00000000       0.00000001       0.00323166       0.00323166       0.00000000      -0.00605402      -0.00605402
5
Lattice="3.956890824831104 0.0 0.0 -0.001 4.015338059204685 0.0 0.0 0.0 4.015338059204685" Properties=species:S:1:pos:R:3:oxn:R:1:MACE_forces:R:3:MACE_atomic_dipoles:R:3 cell_displacement="_JSON [[-0.0, -0.0, -0.0], [-0.001, -0.0, -0.0], [-0.0, -0.0, -0.0]]" MACE_energy=-3701.921366427908 MACE_stress="_JSON [[0.00016519529750856916, -0.00018704912909652438, 6.233660128845963e-07], [-0.00018704912909652438, 0.00045991648325466566, -0.002597782562049491], [6.233660128845963e-07, -0.002597782562049491, 0.0004599600265230709]]" MACE_dipole="3.956246451347813 3.065282824154005 3.0652827598416637" pbc="T T T"
Ba       1.97794541       2.00766903       2.00766903       4.00000000       0.00006411      -0.00078911      -0.00078938       0.00001717      -0.02410197      -0.02410197
Ti       0.00001318      -0.05290719      -0.05290719       2.00000000       0.00040130       0.00758796       0.00758871       0.00015093      -0.28901476      -0.28901483
O       -0.00001238       0.04970014       2.09535769      -2.00000000      -0.00021539       0.00261936      -0.01204780      -0.00000169      -0.00659088      -0.12445595
O       -0.00052184       2.09535769       0.04970014      -2.00000000      -0.00036759      -0.01204724       0.00261943       0.00004396      -0.12445598      -0.00659088
O        1.97843056       0.05962402       0.05962402      -2.00000000       0.00011757       0.00262903       0.00262904       0.00002076      -0.00605163      -0.00605165
5
Lattice="3.956890824831104 0.0 0.0 0.0 4.014338059204684 0.0 0.0 0.0 4.015338059204685" Properties=species:S:1:pos:R:3:oxn:R:1:MACE_forces:R:3:MACE_atomic_dipoles:R:3 cell_displacement="_JSON [[-0.0, -0.0, -0.0], [-0.0, -0.001, -0.0], [-0.0, -0.0, -0.0]]" MACE_energy=-3701.9213711739785 MACE_stress="_JSON [[-1.7018746472345368e-05, -2.771403057067683e-11, -2.7623748171192633e-11], [-2.771403057067683e-11, -4.9781393525000445e-05, -0.0025911031023956033], [-2.7623748171192633e-11, -0.0025911031023956033, 0.0002756377659830922]]" MACE_dipole="3.9568908270158634 3.0641721767828467 3.065526796275096" pbc="T T T"
Ba       1.97844541       2.00716903       2.00766903       4.00000000       0.00000001      -0.00050167      -0.00070413      -0.00000000      -0.02409432      -0.02409371
Ti       0.00000000      -0.05289401      -0.05290719       2.00000000      -0.00000000       0.01166032       0.00777428       0.00000001      -0.28928514      -0.28882064
O        0.00000000       0.04968776       2.09535769      -2.00000000      -0.00000001       0.00269351      -0.01261862       0.00000000      -0.00661516      -0.12440529
O        0.00000000       2.09483585       0.04970014      -2.00000000      -0.00000001      -0.01655270       0.00315756       0.00000000      -0.12437840      -0.00659138
O        1.97844541       0.05960917       0.05962402      -2.00000000       0.00000001       0.00270053       0.00239089       0.00000000      -0.00607734      -0.00606024
5
Lattice="3.956890824831104 0.0 0.0 0.0 4.015338059204685 0.0 0.0 -0.001 4.015338059204685" Properties=species:S:1:pos:R:3:oxn:R:1:MACE_forces:R:3:MACE_atomic_dipoles:R:3 cell_displacement="_JSON [[-0.0, -0.0, -0.0], [-0.0, -0.0, -0.0], [-0.0, -0.001, -0.0]]" MACE_energy=-3701.9213252009536 MACE_stress="_JSON [[0.0001654578558840743, -2.758207500700554e-11, -2.7588800790496914e-11], [-2.758207500700554e-11, 0.0004679373490349653, -0.0027788874641260022], [-2.7588800790496914e-11, -0.0027788874641260022, 0.00046659214768317894]]" MACE_dipole="3.95689082702046 3.064600266730354 3.0653637186475975" pbc="T T T"
Ba       1.97844541       2.00716903       2.00766903       4.00000000       0.00000001      -0.00071070      -0.00071091      -0.00000000      -0.02408483      -0.02409083
Ti       0.00000000      -0.05289401      -0.05290719       2.00000000      -0.00000000       0.00786903       0.00787054       0.00000001      -0.28888500      -0.28895691
O        0.00000000       0.04917830       2.09535769      -2.00000000      -0.00000001       0.00223622      -0.01182262       0.00000000      -0.00654402      -0.12445361
O        0.00000000       2.09534531       0.04970014      -2.00000000      -0.00000001      -0.01182365       0.00223333       0.00000000      -0.12445197      -0.00657501
O        1.97844541       0.05960917       0.05962402      -2.00000000       0.00000001       0.00242909       0.00242965       0.00000000      -0.00605646      -0.00605796
