5
Lattice="3.956890824831104 0.0 0.0 0.0 4.015338059204685 0.0 0.0 0.0 4.015338059204685" Properties=species:S:1:pos:R:3:oxn:R:1 cell_displacement="_JSON [[0.0, 0.0, 0.0], [0.0, 0.0, 0.0], [0.0, 0.0, 0.0]]" pbc="T T T"
Ba       1.97844541       2.00766903       2.00766903       4.00000000
Ti       0.00000000      -0.05290719      -0.05290719       2.00000000
O        0.00000000       0.04970014       2.09535769      -2.00000000
O        0.00000000       2.09535769       0.04970014      -2.00000000
O        1.97844541       0.05962402       0.05962402      -2.00000000
5
Lattice="3.9578908248311038 0.0 0.0 0.0 4.015338059204685 0.0 0.0 0.0 4.015338059204685" Properties=species:S:1:pos:R:3:oxn:R:1 cell_displacement="_JSON [[0.001, 0.0, 0.0], [0.0, 0.0, 0.0], [0.0, 0.0, 0.0]]" pbc="T T T"
Ba       1.97894541       2.00766903       2.00766903       4.00000000
Ti       0.00000000      -0.05290719      -0.05290719       2.00000000
O        0.00000000       0.04970014       2.09535769      -2.00000000
O        0.00000000       2.09535769       0.04970014      -2.00000000
O        1.97894541       0.05962402       0.05962402      -2.00000000
5
Lattice="3.956890824831104 0.0 0.0 0.001 4.015338059204685 0.0 0.0 0.0 4.015338059204685" Properties=species:S:1:pos:R:3:oxn:R:1 cell_displacement="_JSON [[0.0, 0.0, 0.0], [0.001, 0.0, 0.0], [0.0, 0.0, 0.0]]" pbc="T T T"
Ba       1.97894541       2.00766903       2.00766903       4.00000000
Ti      -0.00001318      -0.05290719      -0.05290719       2.00000000
O        0.00001238       0.04970014       2.09535769      -2.00000000
O        0.00052184       2.09535769       0.04970014      -2.00000000
O        1.97846026       0.05962402       0.05962402      -2.00000000
5
Lattice="3.956890824831104 0.0 0.0 0.0 4.016338059204685 0.0 0.0 0.0 4.015338059204685" Properties=species:S:1:pos:R:3:oxn:R:1 cell_displacement="_JSON [[0.0, 0.0, 0.0], [0.0, 0.001, 0.0], [0.0, 0.0, 0.0]]" pbc="T T T"
Ba       1.97844541       2.00816903       2.00766903       4.00000000
Ti       0.00000000      -0.05292037      -0.05290719       2.00000000
O        0.00000000       0.04971252       2.09535769      -2.00000000
O        0.00000000       2.09587953       0.04970014      -2.00000000
O        1.97844541       0.05963887       0.05962402      -2.00000000
5
Lattice="3.956890824831104 0.0 0.0 0.0 4.015338059204685 0.0 0.0 0.001 4.015338059204685" Properties=species:S:1:pos:R:3:oxn:R:1 cell_displacement="_JSON [[0.0, 0.0, 0.0], [0.0, 0.0, 0.0], [0.0, 0.001, 0.0]]" pbc="T T T"
Ba       1.97844541       2.00816903       2.00766903       4.00000000
Ti       0.00000000      -0.05292037      -0.05290719       2.00000000
O        0.00000000       0.05022198       2.09535769      -2.00000000
O        0.00000000       2.09537007       0.04970014      -2.00000000
O        1.97844541       0.05963887       0.05962402      -2.00000000
5
Lattice="3.955890824831104 0.0 0.0 0.0 4.015338059204685 0.0 0.0 0.0 4.015338059204685" Properties=species:S:1:pos:R:3:oxn:R:1 cell_displacement="_JSON [[-0.001, -0.0, -0.0], [-0.0, -0.0, -0.0], [-0.0, -0.0, -0.0]]" pbc="T T T"
Ba       1.97794541       2.00766903       2.00766903       4.00000000
Ti       0.00000000      -0.05290719      -0.05290719       2.00000000
O        0.00000000       0.04970014       2.09535769      -2.00000000
O        0.00000000       2.09535769       0.04970014      -2.00000000
O        1.97794541       0.05962402       0.05962402      -2.00000000
5
Lattice="3.956890824831104 0.0 0.0 -0.001 4.015338059204685 0.0 0.0 0.0 4.015338059204685" Properties=species:S:1:pos:R:3:oxn:R:1 cell_displacement="_JSON [[-0.0, -0.0, -0.0], [-0.001, -0.0, -0.0], [-0.0, -0.0, -0.0]]" pbc="T T T"
Ba       1.97794541       2.00766903       2.00766903       4.00000000
Ti       0.00001318      -0.05290719      -0.05290719       2.00000000
O       -0.00001238       0.04970014       2.09535769      -2.00000000
O       -0.00052184       2.09535769       0.04970014      -2.00000000
O        1.97843056       0.05962402       0.05962402      -2.00000000
5
Lattice="3.956890824831104 0.0 0.0 0.0 4.014338059204684 0.0 0.0 0.0 4.015338059204685" Properties=species:S:1:pos:R:3:oxn:R:1 cell_displacement="_JSON [[-0.0, -0.0, -0.0], [-0.0, -0.001, -0.0], [-0.0, -0.0, -0.0]]" pbc="T T T"
Ba       1.97844541       2.00716903       2.00766903       4.00000000
Ti       0.00000000      -0.05289401      -0.05290719       2.00000000
O        0.00000000       0.04968776       2.09535769      -2.00000000
O        0.00000000       2.09483585       0.04970014      -2.00000000
O        1.97844541       0.05960917       0.05962402      -2.00000000
5
Lattice="3.956890824831104 0.0 0.0 0.0 4.015338059204685 0.0 0.0 -0.001 4.015338059204685" Properties=species:S:1:pos:R:3:oxn:R:1 cell_displacement="_JSON [[-0.0, -0.0, -0.0], [-0.0, -0.0, -0.0], [-0.0, -0.001, -0.0]]" pbc="T T T"
Ba       1.97844541       2.00716903       2.00766903       4.00000000
Ti       0.00000000      -0.05289401      -0.05290719       2.00000000
O        0.00000000       0.04917830       2.09535769      -2.00000000
O        0.00000000       2.09534531       0.04970014      -2.00000000
O        1.97844541       0.05960917       0.05962402      -2.00000000
