5
Lattice="3.9630821981688404 0.0 0.0 0.0 3.9630821981688404 0.0 0.0 0.0 4.051482709681195" Properties=species:S:1:pos:R:3:oxn:R:1:MACE_forces:R:3:MACE_atomic_dipoles:R:3 cell_displacement="_JSON [[0.0, 0.0, 0.0], [0.0, 0.0, 0.0], [0.0, 0.0, 0.0]]" MACE_energy=-3701.917423004462 MACE_stress="_JSON [[0.00030647451341045916, 3.9887185465330224e-18, -1.2918347979203888e-11], [3.9887185465330224e-18, 0.0003064745134104481, -1.2918344134096267e-11], [-1.2918347979203888e-11, -1.2918344134096267e-11, 0.00018029674349227286]]" MACE_dipole="3.963082197310419 3.963082197310419 5.2664817053127395" pbc="T T T"
Ba       1.98154110       1.98154110       2.02574135       4.00000000      -0.00000000      -0.00000000       0.00409909       0.00000000       0.00000000       0.03171759
Ti       0.00000000       0.00000000       0.06367602       2.00000000      -0.00000000      -0.00000000      -0.01299909      -0.00000000      -0.00000000       0.36547686
O        0.00000000       0.00000000       1.90843887      -2.00000000       0.00000000       0.00000000       0.00875198      -0.00000000      -0.00000000       0.14398931
O        0.00000000       1.98154110      -0.07326947      -2.00000000       0.00000000      -0.00000000       0.00007401      -0.00000000      -0.00000000       0.00939019
O        1.98154110       0.00000000      -0.07326947      -2.00000000      -0.00000000       0.00000000       0.00007401      -0.00000000      -0.00000000       0.00939019
5
Lattice="3.9640821981688403 0.0 0.0 0.0 3.9630821981688404 0.0 0.0 0.0 4.051482709681195" Properties=species:S:1:pos:R:3:oxn:R:1:MACE_forces:R:3:MACE_atomic_dipoles:R:3 cell_displacement="_JSON [[0.001, 0.0, 0.0], [0.0, 0.0, 0.0], [0.0, 0.0, 0.0]]" MACE_energy=-3701.9174139587017 MACE_stress="_JSON [[0.0008201053426328927, 7.066504525597831e-18, -1.2826172962629056e-11], [7.066504525597831e-18, 0.0004919949050575031, -1.291792804301731e-11], [-1.2826172962629056e-11, -1.291792804301731e-11, 0.00036590881189463786]]" MACE_dipole="3.96408219731199 3.9630821973086925 5.266794459691899" pbc="T T T"
Ba       1.98204110       1.98154110       2.02574135       4.00000000      -0.00000000      -0.00000000       0.00418624       0.00000000       0.00000000       0.03173031
Ti       0.00000000       0.00000000       0.06367602       2.00000000      -0.00000000      -0.00000000      -0.01289172      -0.00000000      -0.00000000       0.36572978
O        0.00000000       0.00000000       1.90843887      -2.00000000       0.00000000       0.00000000       0.00811049      -0.00000000      -0.00000000       0.14405050
O        0.00000000       1.98154110      -0.07326947      -2.00000000       0.00000000      -0.00000000      -0.00022073      -0.00000000      -0.00000000       0.00938165
O        1.98204110       0.00000000      -0.07326947      -2.00000000      -0.00000000       0.00000000       0.00081571      -0.00000000      -0.00000000       0.00938464
5
Lattice="3.9630821981688404 0.0 0.0 0.0 3.9630821981688404 0.0 0.001 0.0 4.051482709681195" Properties=species:S:1:pos:R:3:oxn:R:1:MACE_forces:R:3:MACE_atomic_dipoles:R:3 cell_displacement="_JSON [[0.0, 0.0, 0.0], [0.0, 0.0, 0.0], [0.001, 0.0, 0.0]]" MACE_energy=-3701.9174215768485 MACE_stress="_JSON [[0.00030645804103151224, -1.7972110620203513e-14, 0.00018179185767965028], [-1.7972110620203513e-14, 0.0003064534945085241, -1.291845174891325e-11], [0.00018179185767965028, -1.291845174891325e-11, 0.0001802306307609476]]" MACE_dipole="3.9645285214207884 3.96308219731042 5.266481627739426" pbc="T T T"
Ba       1.98204110       1.98154110       2.02574135       4.00000000       0.00009288      -0.00000000       0.00409877       0.00002161       0.00000000       0.03171758
Ti       0.00001572       0.00000000       0.06367602       2.00000000       0.00051619      -0.00000000      -0.01299833       0.00018996      -0.00000000       0.36547679
O        0.00047105       0.00000000       1.90843887      -2.00000000      -0.00046252       0.00000000       0.00875134       0.00005377      -0.00000000       0.14398932
O       -0.00001808       1.98154110      -0.07326947      -2.00000000      -0.00027528      -0.00000000       0.00007423      -0.00000314      -0.00000000       0.00939019
O        1.98152302       0.00000000      -0.07326947      -2.00000000       0.00012873       0.00000000       0.00007400       0.00002247      -0.00000000       0.00939018
5
Lattice="3.9630821981688404 0.0 0.0 0.0 3.9630821981688404 0.0 0.0 0.0 4.052482709681195" Properties=species:S:1:pos:R:3:oxn:R:1:MACE_forces:R:3:MACE_atomic_dipoles:R:3 cell_displacement="_JSON [[0.0, 0.0, 0.0], [0.0, 0.0, 0.0], [0.0, 0.0, 0.001]]" MACE_energy=-3701.9174161933624 MACE_stress="_JSON [[0.00048800396020792205, -1.0060226912068136e-16, -1.287033065305529e-11], [-1.0060226912068136e-16, 0.00048800396020789175, -1.2870275152102233e-11], [-1.287033065305529e-11, -1.2870275152102233e-11, 0.0006868532905197338]]" MACE_dipole="3.96308219730879 3.9630821973087897 5.267302876235499" pbc="T T T"
Ba       1.98154110       1.98154110       2.02624135       4.00000000      -0.00000000      -0.00000000       0.00448030       0.00000000       0.00000000       0.03172913
Ti       0.00000000       0.00000000       0.06369174       2.00000000      -0.00000000      -0.00000000      -0.00800890      -0.00000000      -0.00000000       0.36510057
O        0.00000000       0.00000000       1.90890992      -2.00000000       0.00000000       0.00000000       0.00318702      -0.00000000      -0.00000000       0.14409145
O        0.00000000       1.98154110      -0.07328755      -2.00000000       0.00000000      -0.00000000       0.00017079      -0.00000000      -0.00000000       0.00935124
O        1.98154110       0.00000000      -0.07328755      -2.00000000      -0.00000000       0.00000000       0.00017079      -0.00000000      -0.00000000       0.00935124
5
Lattice="3.9620821981688406 0.0 0.0 0.0 3.9630821981688404 0.0 0.0 0.0 4.051482709681195" Properties=species:S:1:pos:R:3:oxn:R:1:MACE_forces:R:3:MACE_atomic_dipoles:R:3 cell_displacement="_JSON [[-0.001, -0.0, -0.0], [-0.0, -0.0, -0.0], [-0.0, -0.0, -0.0]]" MACE_energy=-3701.9174237949255 MACE_stress="_JSON [[-0.00020818512049986426, 9.566425720020361e-17, -1.3010883821744234e-11], [9.566425720020361e-17, 0.00012066961003277129, -1.2918814883475867e-11], [-1.3010883821744234e-11, -1.2918814883475867e-11, -5.58585984306012e-06]]" MACE_dipole="3.9620821973088436 3.963082197312148 5.266168609882416" pbc="T T T"
Ba       1.98104110       1.98154110       2.02574135       4.00000000      -0.00000000      -0.00000000       0.00401137       0.00000000       0.00000000       0.03170485
Ti       0.00000000       0.00000000       0.06367602       2.00000000       0.00000000      -0.00000000      -0.01310460      -0.00000000      -0.00000000       0.36522364
O        0.00000000       0.00000000       1.90843887      -2.00000000       0.00000000       0.00000000       0.00939423      -0.00000000      -0.00000000       0.14392805
O        0.00000000       1.98154110      -0.07326947      -2.00000000       0.00000000      -0.00000000       0.00036930      -0.00000000      -0.00000000       0.00939875
O        1.98104110       0.00000000      -0.07326947      -2.00000000      -0.00000000       0.00000000      -0.00067030      -0.00000000      -0.00000000       0.00939574
5
Lattice="3.9630821981688404 0.0 0.0 0.0 3.9630821981688404 0.0 -0.001 0.0 4.051482709681195" Properties=species:S:1:pos:R:3:oxn:R:1:MACE_forces:R:3:MACE_atomic_dipoles:R:3 cell_displacement="_JSON [[-0.0, -0.0, -0.0], [-0.0, -0.0, -0.0], [-0.001, -0.0, -0.0]]" MACE_energy=-3701.9174215768485 MACE_stress="_JSON [[0.0003064580408699048, 1.809275406767859e-14, -0.00018179188351650634], [1.809275406767859e-14, 0.0003064534945139939, -1.2918571043096665e-11], [-0.00018179188351650634, -1.2918571043096665e-11, 0.0001802306306645767]]" MACE_dipole="3.9616358732000494 3.96308219731042 5.266481627739675" pbc="T T T"
Ba       1.98104110       1.98154110       2.02574135       4.00000000      -0.00009289      -0.00000000       0.00409877      -0.00002160       0.00000000       0.03171758
Ti      -0.00001572       0.00000000       0.06367602       2.00000000      -0.00051619      -0.00000000      -0.01299833      -0.00018996      -0.00000000       0.36547679
O       -0.00047105       0.00000000       1.90843887      -2.00000000       0.00046253       0.00000000       0.00875134      -0.00005377      -0.00000000       0.14398932
O        0.00001808       1.98154110      -0.07326947      -2.00000000       0.00027529      -0.00000000       0.00007423       0.00000314      -0.00000000       0.00939019
O        1.98155918       0.00000000      -0.07326947      -2.00000000      -0.00012874       0.00000000       0.00007400      -0.00002247      -0.00000000       0.00939018
5
Lattice="3.9630821981688404 0.0 0.0 0.0 3.9630821981688404 0.0 0.0 0.0 4.050482709681194" Properties=species:S:1:pos:R:3:oxn:R:1:MACE_forces:R:3:MACE_atomic_dipoles:R:3 cell_displacement="_JSON [[-0.0, -0.0, -0.0], [-0.0, -0.0, -0.0], [-0.0, -0.0, -0.001]]" MACE_energy=-3701.917421851488 MACE_stress="_JSON [[0.00012467733654886932, 1.0527654883645658e-17, -1.2966814554642465e-11], [1.0527654883645658e-17, 0.00012467733654887155, -1.296677866809081e-11], [-1.2966814554642465e-11, -1.296677866809081e-11, -0.0003272901383976378]]" MACE_dipole="3.9630821973120485 3.9630821973120485 5.265659880987215" pbc="T T T"
Ba       1.98154110       1.98154110       2.02524135       4.00000000      -0.00000000      -0.00000000       0.00371672       0.00000000       0.00000000       0.03170611
Ti       0.00000000       0.00000000       0.06366030       2.00000000      -0.00000000      -0.00000000      -0.01799947      -0.00000000      -0.00000000       0.36585187
O        0.00000000       0.00000000       1.90796782      -2.00000000       0.00000000       0.00000000       0.01432695      -0.00000000      -0.00000000       0.14388799
O        0.00000000       1.98154110      -0.07325139      -2.00000000       0.00000000      -0.00000000      -0.00002210      -0.00000000      -0.00000000       0.00942900
O        1.98154110       0.00000000      -0.07325139      -2.00000000      -0.00000000       0.00000000      -0.00002210      -0.00000000      -0.00000000       0.00942900
