5
Lattice="3.9630821981688404 0.0 0.0 0.0 3.9630821981688404 0.0 0.0 0.0 4.051482709681195" Properties=species:S:1:pos:R:3:oxn:R:1 cell_displacement="_JSON [[0.0, 0.0, 0.0], [0.0, 0.0, 0.0], [0.0, 0.0, 0.0]]" pbc="T T T"
Ba       1.98154110       1.98154110       2.02574135       4.00000000
Ti       0.00000000       0.00000000       0.06367602       2.00000000
O        0.00000000       0.00000000       1.90843887      -2.00000000
O        0.00000000       1.98154110      -0.07326947      -2.00000000
O        1.98154110       0.00000000      -0.07326947      -2.00000000
5
Lattice="3.9640821981688403 0.0 0.0 0.0 3.9630821981688404 0.0 0.0 0.0 4.051482709681195" Properties=species:S:1:pos:R:3:oxn:R:1 cell_displacement="_JSON [[0.001, 0.0, 0.0], [0.0, 0.0, 0.0], [0.0, 0.0, 0.0]]" pbc="T T T"
Ba       1.98204110       1.98154110       2.02574135       4.00000000
Ti       0.00000000       0.00000000       0.06367602       2.00000000
O        0.00000000       0.00000000       1.90843887      -2.00000000
O        0.00000000       1.98154110      -0.07326947      -2.00000000
O        1.98204110       0.00000000      -0.07326947      -2.00000000
5
Lattice="3.9630821981688404 0.0 0.0 0.0 3.9630821981688404 0.0 0.001 0.0 4.051482709681195" Properties=species:S:1:pos:R:3:oxn:R:1 cell_displacement="_JSON [[0.0, 0.0, 0.0], [0.0, 0.0, 0.0], [0.001, 0.0, 0.0]]" pbc="T T T"
Ba       1.98204110       1.98154110       2.02574135       4.00000000
Ti       0.00001572       0.00000000       0.06367602       2.00000000
O        0.00047105       0.00000000       1.90843887      -2.00000000
O       -0.00001808       1.98154110      -0.07326947      -2.00000000
O        1.98152302       0.00000000      -0.07326947      -2.00000000
5
Lattice="3.9630821981688404 0.0 0.0 0.0 3.9630821981688404 0.0 0.0 0.0 4.052482709681195" Properties=species:S:1:pos:R:3:oxn:R:1 cell_displacement="_JSON [[0.0, 0.0, 0.0], [0.0, 0.0, 0.0], [0.0, 0.0, 0.001]]" pbc="T T T"
Ba       1.98154110       1.98154110       2.02624135       4.00000000
Ti       0.00000000       0.00000000       0.06369174       2.00000000
O        0.00000000       0.00000000       1.90890992      -2.00000000
O        0.00000000       1.98154110      -0.07328755      -2.00000000
O        1.98154110       0.00000000      -0.07328755      -2.00000000
5
Lattice="3.9620821981688406 0.0 0.0 0.0 3.9630821981688404 0.0 0.0 0.0 4.051482709681195" Properties=species:S:1:pos:R:3:oxn:R:1 cell_displacement="_JSON [[-0.001, -0.0, -0.0], [-0.0, -0.0, -0.0], [-0.0, -0.0, -0.0]]" pbc="T T T"
Ba       1.98104110       1.98154110       2.02574135       4.00000000
Ti       0.00000000       0.00000000       0.06367602       2.00000000
O        0.00000000       0.00000000       1.90843887      -2.00000000
O        0.00000000       1.98154110      -0.07326947      -2.00000000
O        1.98104110       0.00000000      -0.07326947      -2.00000000
5
Lattice="3.9630821981688404 0.0 0.0 0.0 3.9630821981688404 0.0 -0.001 0.0 4.051482709681195" Properties=species:S:1:pos:R:3:oxn:R:1 cell_displacement="_JSON [[-0.0, -0.0, -0.0], [-0.0, -0.0, -0.0], [-0.001, -0.0, -0.0]]" pbc="T T T"
Ba       1.98104110       1.98154110       2.02574135       4.00000000
Ti      -0.00001572       0.00000000       0.06367602       2.00000000
O       -0.00047105       0.00000000       1.90843887      -2.00000000
O        0.00001808       1.98154110      -0.07326947      -2.00000000
O        1.98155918       0.00000000      -0.07326947      -2.00000000
5
Lattice="3.9630821981688404 0.0 0.0 0.0 3.9630821981688404 0.0 0.0 0.0 4.050482709681194" Properties=species:S:1:pos:R:3:oxn:R:1 cell_displacement="_JSON [[-0.0, -0.0, -0.0], [-0.0, -0.0, -0.0], [-0.0, -0.0, -0.001]]" pbc="T T T"
Ba       1.98154110       1.98154110       2.02524135       4.00000000
Ti       0.00000000       0.00000000       0.06366030       2.00000000
O        0.00000000       0.00000000       1.90796782      -2.00000000
O        0.00000000       1.98154110      -0.07325139      -2.00000000
O        1.98154110       0.00000000      -0.07325139      -2.00000000
