5
Lattice="3.9775557239945183 0.0 0.0 0.0 3.9775557239945183 0.0 0.0 0.0 3.9775557239945183" Properties=species:S:1:pos:R:3:oxn:R:1:MACE_forces:R:3:MACE_atomic_dipoles:R:3 cell_displacement="_JSON [[0.0, 0.0, 0.0], [0.0, 0.0, 0.0], [0.0, 0.0, 0.0]]" MACE_energy=-3701.9015556474133 MACE_stress="_JSON [[-0.001208179343059029, 5.483046165944535e-17, 7.567363573202916e-17], [5.483046165944535e-17, -0.0012081793430589794, 4.244013502527457e-17], [7.567363573202916e-17, 4.244013502527457e-17, -0.0012081793430589868]]" MACE_dipole="3.97755572608531 3.97755572608531 3.97755572608531" pbc="T T T"
Ba       1.98877786       1.98877786       1.98877786       4.00000000       0.00000001       0.00000001       0.00000001      -0.00000000      -0.00000000      -0.00000000
Ti       0.00000000       0.00000000       0.00000000       2.00000000       0.00000000       0.00000000       0.00000000       0.00000000       0.00000000       0.00000000
O        0.00000000       0.00000000       1.98877786      -2.00000000      -0.00000001      -0.00000001       0.00000001       0.00000000       0.00000000       0.00000000
O        0.00000000       1.98877786       0.00000000      -2.00000000      -0.00000001       0.00000001      -0.00000001       0.00000000       0.00000000       0.00000000
O        1.98877786       0.00000000       0.00000000      -2.00000000       0.00000001      -0.00000001      -0.00000001       0.00000000       0.00000000       0.00000000
