5
Lattice="3.9775557239945183 0.0 0.0 0.0 3.9775557239945183 0.0 0.0 0.0 3.9775557239945183" Properties=species:S:1:pos:R:3:oxn:R:1 cell_displacement="_JSON [[0.0, 0.0, 0.0], [0.0, 0.0, 0.0], [0.0, 0.0, 0.0]]" pbc="T T T"
Ba       1.98877786       1.98877786       1.98877786       4.00000000
Ti       0.00000000       0.00000000       0.00000000       2.00000000
O        0.00000000       0.00000000       1.98877786      -2.00000000
O        0.00000000       1.98877786       0.00000000      -2.00000000
O        1.98877786       0.00000000       0.00000000      -2.00000000
