5
Lattice="3.9968414651261877 0.0 0.0 0.009112640060936053 3.996831076883682 0.0 0.009112640060936053 0.009091887233766279 3.996820735876166" Properties=species:S:1:pos:R:3:oxn:R:1:MACE_forces:R:3:MACE_atomic_dipoles:R:3 cell_displacement="_JSON [[0.0, 0.0, 0.0], [0.0, 0.0, 0.0], [0.0, 0.0, 0.0]]" MACE_energy=-3701.9232486222363 MACE_stress="_JSON [[0.00025107589553164045, -0.00020619943198286098, -0.00020573082751614854], [-0.00020619943198286098, 0.00025201142375029257, -0.00020526242799925545], [-0.00020573082751614854, -0.00020526242799925545, 0.00025294759553119803]]" MACE_dipole="4.817414964133358 4.806444099175319 4.795522843569705" pbc="T T T"
Ba       2.00753337       2.00296148       1.99841037       4.00000000       0.00077196       0.00077017       0.00076845       0.02028559       0.02023940       0.02019341
Ti       0.04587804       0.04577356       0.04566956       2.00000000      -0.00594137      -0.00592787      -0.00591440       0.24465848       0.24410135       0.24354668
O       -0.04101028      -0.04091689       1.92686454      -2.00000000      -0.00252154      -0.00251584       0.01022404       0.00497125       0.00495994       0.10991161
O       -0.04101028       1.92676646      -0.04529996      -2.00000000      -0.00252154       0.01021836      -0.00253905       0.00497125       0.10992261       0.00470990
O        1.92666797      -0.04540314      -0.04529996      -2.00000000       0.01021249      -0.00254482      -0.00253904       0.10993365       0.00472062       0.00470990
5
Lattice="3.9978414651261875 0.0 0.0 0.009112640060936053 3.996831076883682 0.0 0.009112640060936053 0.009091887233766279 3.996820735876166" Properties=species:S:1:pos:R:3:oxn:R:1:MACE_forces:R:3:MACE_atomic_dipoles:R:3 cell_displacement="_JSON [[0.001, 0.0, 0.0], [0.0, 0.0, 0.0], [0.0, 0.0, 0.0]]" MACE_energy=-3701.923240524977 MACE_stress="_JSON [[0.0007606070623240197, -0.0002127832449401699, -0.00021229968028442392], [-0.0002127832449401699, 0.00043551709559781386, -0.00020602502909439967], [-0.00021229968028442392, -0.00020602502909439967, 0.00043645673564469414]]" MACE_dipole="4.818335630789317 4.8066590840164425 4.795737339902079" pbc="T T T"
Ba       2.00803337       2.00296148       1.99841037       4.00000000       0.00101201       0.00083307       0.00083121       0.02029168       0.02024619       0.02020018
Ti       0.04588947       0.04577356       0.04566956       2.00000000      -0.00244197      -0.00580071      -0.00578752       0.24444167       0.24427450       0.24371943
O       -0.04102161      -0.04091689       1.92686454      -2.00000000      -0.00246617      -0.00269758       0.00974660       0.00495248       0.00495431       0.10995248
O       -0.04102161       1.92676646      -0.04529996      -2.00000000      -0.00246617       0.00974051      -0.00271970       0.00495248       0.10996347       0.00470418
O        1.92715007      -0.04540314      -0.04529996      -2.00000000       0.00636229      -0.00207530      -0.00207059       0.10999861       0.00472043       0.00470970
5
Lattice="3.9968414651261877 0.0 0.0 0.010112640060936054 3.996831076883682 0.0 0.009112640060936053 0.009091887233766279 3.996820735876166" Properties=species:S:1:pos:R:3:oxn:R:1:MACE_forces:R:3:MACE_atomic_dipoles:R:3 cell_displacement="_JSON [[0.0, 0.0, 0.0], [0.001, 0.0, 0.0], [0.0, 0.0, 0.0]]" MACE_energy=-3701.923250427483 MACE_stress="_JSON [[0.00024480436380760795, -2.0751757027772753e-05, -0.00020666847932183292], [-2.0751757027772753e-05, 0.0002456773398589381, -0.00020573721579669185], [-0.00020666847932183292, -0.00020573721579669185, 0.00025209767152276373]]" MACE_dipole="4.818691962987337 4.806520099727422 4.795510291242274" pbc="T T T"
Ba       2.00803337       2.00296148       1.99841037       4.00000000       0.00083226       0.00083066       0.00076855       0.02029999       0.02024873       0.02019316
Ti       0.04588947       0.04577356       0.04566956       2.00000000      -0.00568115      -0.00565804      -0.00594617       0.24477290       0.24415377       0.24353578
O       -0.04102161      -0.04091689       1.92686454      -2.00000000      -0.00269388      -0.00268727       0.01025095       0.00496817       0.00495568       0.10991103
O       -0.04052818       1.92676646      -0.04529996      -2.00000000      -0.00283767       0.01037996      -0.00253605       0.00501039       0.10992956       0.00470951
O        1.92665664      -0.04540314      -0.04529996      -2.00000000       0.01038043      -0.00286532      -0.00253727       0.10994179       0.00473219       0.00470946
5
Lattice="3.9958414651261878 0.0 0.0 0.009112640060936053 3.996831076883682 0.0 0.009112640060936053 0.009091887233766279 3.996820735876166" Properties=species:S:1:pos:R:3:oxn:R:1:MACE_forces:R:3:MACE_atomic_dipoles:R:3 cell_displacement="_JSON [[-0.001, -0.0, -0.0], [-0.0, -0.0, -0.0], [-0.0, -0.0, -0.0]]" MACE_energy=-3701.92324857117 MACE_stress="_JSON [[-0.0002594937737615726, -0.00019960554420577338, -0.00019915192282040107], [-0.00019960554420577338, 6.823287871246569e-05, -0.00020449860312129277], [-0.00019915192282040107, -0.00020449860312129277, 6.916557666100846e-05]]" MACE_dipole="4.816493799797866 4.806228905562808 4.79530813894032" pbc="T T T"
Ba       2.00703337       2.00296148       1.99841037       4.00000000       0.00053114       0.00070688       0.00070531       0.02027954       0.02023260       0.02018662
Ti       0.04586661       0.04577356       0.04566956       2.00000000      -0.00944862      -0.00605375      -0.00603999       0.24487433       0.24392804       0.24337376
O       -0.04099895      -0.04091689       1.92686454      -2.00000000      -0.00257618      -0.00233381       0.01070199       0.00498994       0.00496557       0.10987068
O       -0.04099895       1.92676646      -0.04529996      -2.00000000      -0.00257618       0.01069673      -0.00235811       0.00498994       0.10988170       0.00471562
O        1.92618587      -0.04540314      -0.04529996      -2.00000000       0.01406983      -0.00301605      -0.00300920       0.10986929       0.00472082       0.00471009
5
Lattice="3.9968414651261877 0.0 0.0 0.008112640060936052 3.996831076883682 0.0 0.009112640060936053 0.009091887233766279 3.996820735876166" Properties=species:S:1:pos:R:3:oxn:R:1:MACE_forces:R:3:MACE_atomic_dipoles:R:3 cell_displacement="_JSON [[-0.0, -0.0, -0.0], [-0.001, -0.0, -0.0], [-0.0, -0.0, -0.0]]" MACE_energy=-3701.9232438544773 MACE_stress="_JSON [[0.0002573164926981416, -0.00039164904140141446, -0.0002047912155505731], [-0.00039164904140141446, 0.0002582106936406701, -0.00020478647294653053], [-0.0002047912155505731, -0.00020478647294653053, 0.000253750627640452]]" MACE_dipole="4.816138022250643 4.806367992685297 4.795535382709992" pbc="T T T"
Ba       2.00703337       2.00296148       1.99841037       4.00000000       0.00071124       0.00070926       0.00076842       0.02027119       0.02023006       0.02019365
Ti       0.04586661       0.04577356       0.04566956       2.00000000      -0.00620128      -0.00619667      -0.00588289       0.24454410       0.24404884       0.24355760
O       -0.04099895      -0.04091689       1.92686454      -2.00000000      -0.00234907      -0.00234413       0.01019715       0.00497434       0.00496420       0.10991215
O       -0.04149238       1.92676646      -0.04529996      -2.00000000      -0.00220522       0.01005586      -0.00254188       0.00493211       0.10991567       0.00471029
O        1.92667930      -0.04540314      -0.04529996      -2.00000000       0.01004433      -0.00222431      -0.00254081       0.10992552       0.00470905       0.00471034
