5
Lattice="3.9968414651261877 0.0 0.0 0.009112640060936053 3.996831076883682 0.0 0.009112640060936053 0.009091887233766279 3.996820735876166" Properties=species:S:1:pos:R:3:oxn:R:1 cell_displacement="_JSON [[0.0, 0.0, 0.0], [0.0, 0.0, 0.0], [0.0, 0.0, 0.0]]" pbc="T T T"
Ba       2.00753337       2.00296148       1.99841037       4.00000000
Ti       0.04587804       0.04577356       0.04566956       2.00000000
O       -0.04101028      -0.04091689       1.92686454      -2.00000000
O       -0.04101028       1.92676646      -0.04529996      -2.00000000
O        1.92666797      -0.04540314      -0.04529996      -2.00000000
5
Lattice="3.9978414651261875 0.0 0.0 0.009112640060936053 3.996831076883682 0.0 0.009112640060936053 0.009091887233766279 3.996820735876166" Properties=species:S:1:pos:R:3:oxn:R:1 cell_displacement="_JSON [[0.001, 0.0, 0.0], [0.0, 0.0, 0.0], [0.0, 0.0, 0.0]]" pbc="T T T"
Ba       2.00803337       2.00296148       1.99841037       4.00000000
Ti       0.04588947       0.04577356       0.04566956       2.00000000
O       -0.04102161      -0.04091689       1.92686454      -2.00000000
O       -0.04102161       1.92676646      -0.04529996      -2.00000000
O        1.92715007      -0.04540314      -0.04529996      -2.00000000
5
Lattice="3.9968414651261877 0.0 0.0 0.010112640060936054 3.996831076883682 0.0 0.009112640060936053 0.009091887233766279 3.996820735876166" Properties=species:S:1:pos:R:3:oxn:R:1 cell_displacement="_JSON [[0.0, 0.0, 0.0], [0.001, 0.0, 0.0], [0.0, 0.0, 0.0]]" pbc="T T T"
Ba       2.00803337       2.00296148       1.99841037       4.00000000
Ti       0.04588947       0.04577356       0.04566956       2.00000000
O       -0.04102161      -0.04091689       1.92686454      -2.00000000
O       -0.04052818       1.92676646      -0.04529996      -2.00000000
O        1.92665664      -0.04540314      -0.04529996      -2.00000000
5
Lattice="3.9958414651261878 0.0 0.0 0.009112640060936053 3.996831076883682 0.0 0.009112640060936053 0.009091887233766279 3.996820735876166" Properties=species:S:1:pos:R:3:oxn:R:1 cell_displacement="_JSON [[-0.001, -0.0, -0.0], [-0.0, -0.0, -0.0], [-0.0, -0.0, -0.0]]" pbc="T T T"
Ba       2.00703337       2.00296148       1.99841037       4.00000000
Ti       0.04586661       0.04577356       0.04566956       2.00000000
O       -0.04099895      -0.04091689       1.92686454      -2.00000000
O       -0.04099895       1.92676646      -0.04529996      -2.00000000
O        1.92618587      -0.04540314      -0.04529996      -2.00000000
5
Lattice="3.9968414651261877 0.0 0.0 0.008112640060936052 3.996831076883682 0.0 0.009112640060936053 0.009091887233766279 3.996820735876166" Properties=species:S:1:pos:R:3:oxn:R:1 cell_displacement="_JSON [[-0.0, -0.0, -0.0], [-0.001, -0.0, -0.0], [-0.0, -0.0, -0.0]]" pbc="T T T"
Ba       2.00703337       2.00296148       1.99841037       4.00000000
Ti       0.04586661       0.04577356       0.04566956       2.00000000
O       -0.04099895      -0.04091689       1.92686454      -2.00000000
O       -0.04149238       1.92676646      -0.04529996      -2.00000000
O        1.92667930      -0.04540314      -0.04529996      -2.00000000
