5
Lattice="3.9968414651261877 0.0 0.0 0.009112640060936053 3.996831076883682 0.0 0.009112640060936053 0.009091887233766279 3.996820735876166" Properties=species:S:1:pos:R:3:oxn:R:1 pbc="T T T"
Ba       2.00753337       2.00296148       1.99841037       4.00000000
Ti       0.04587804       0.04577356       0.04566956       2.00000000
O       -0.04101028      -0.04091689       1.92686454      -2.00000000
O       -0.04101028       1.92676646      -0.04529996      -2.00000000
O        1.92666797      -0.04540314      -0.04529996      -2.00000000
